[MOLDEN FORMAT]
[N_ATOMS]
                    1
[ATOMS] (AU)
BE          1      4           0.00000000      0.00000000      0.00000000
[5D]
[CHARGE] (MULLIKEN)
   0.0000000000000000     
[GTO] (AU)
   1
   s   1
  0.226512276E+05  0.100000000E+01
   s   1
  0.337569042E+04  0.100000000E+01
   s   1
  0.761110750E+03  0.100000000E+01
   s   1
  0.211952220E+03  0.100000000E+01
   s   1
  0.672906915E+02  0.100000000E+01
   s   1
  0.233955492E+02  0.100000000E+01
   s   1
  0.873009437E+01  0.100000000E+01
   s   1
  0.347155909E+01  0.100000000E+01
   s   1
  0.145359614E+01  0.100000000E+01
   s   1
  0.609223615E+00  0.100000000E+01
   s   1
  0.257943686E+00  0.100000000E+01
   s   1
  0.104280176E+00  0.100000000E+01
   s   1
  0.424694270E-01  0.100000000E+01
   s   1
  0.148638490E-01  0.100000000E+01
   p   1
  0.337101840E+02  0.100000000E+01
   p   1
  0.805764950E+01  0.100000000E+01
   p   1
  0.283647140E+01  0.100000000E+01
   p   1
  0.109996570E+01  0.100000000E+01
   p   1
  0.443396400E+00  0.100000000E+01
   p   1
  0.182226400E+00  0.100000000E+01
   p   1
  0.757241000E-01  0.100000000E+01
   p   1
  0.316854000E-01  0.100000000E+01
   p   1
  0.110899000E-01  0.100000000E+01
   d   1
  0.140000000E+01  0.100000000E+01
   d   1
  0.490000000E+00  0.100000000E+01
   d   1
  0.171500000E+00  0.100000000E+01
   d   1
  0.600250000E-01  0.100000000E+01
 
[MO]
Sym=     1a  
Ene=    -4.7332
Spin= Alpha
Occup=    2.00000
   1         0.00008436
   2         0.00045960
   3         0.00228265
   4         0.00963623
   5         0.03490398
   6         0.10599877
   7         0.24563553
   8         0.38613182
   9         0.31081609
  10         0.06436503
  11        -0.00227013
  12        -0.00051592
  13        -0.00087933
  14         0.00012470
  15        -0.00000000
  16         0.00000000
  17         0.00000000
  18         0.00000000
  19        -0.00000000
  20        -0.00000000
  21        -0.00000000
  22         0.00000000
  23        -0.00000000
  24        -0.00000000
  25        -0.00000000
  26         0.00000000
  27         0.00000000
  28         0.00000000
  29        -0.00000000
  30        -0.00000000
  31        -0.00000000
  32         0.00000000
  33        -0.00000000
  34         0.00000000
  35        -0.00000000
  36         0.00000000
  37         0.00000000
  38         0.00000000
  39        -0.00000000
  40        -0.00000000
  41        -0.00000000
  42        -0.00000000
  43         0.00000000
  44        -0.00000000
  45        -0.00000000
  46        -0.00000000
  47        -0.00000000
  48        -0.00000000
  49         0.00000000
  50         0.00000000
  51         0.00000000
  52        -0.00000000
  53         0.00000000
  54        -0.00000000
  55        -0.00000000
  56        -0.00000000
  57        -0.00000000
  58        -0.00000000
  59         0.00000000
  60        -0.00000000
  61        -0.00000000
Sym=     2a  
Ene=    -0.3093
Spin= Alpha
Occup=    2.00000
   1        -0.00001587
   2        -0.00008642
   3        -0.00042987
   4        -0.00182237
   5        -0.00667595
   6        -0.02092582
   7        -0.05196286
   8        -0.09841873
   9        -0.13558584
  10        -0.06450389
  11         0.31195996
  12         0.62714820
  13         0.21154932
  14        -0.00408797
  15         0.00000000
  16        -0.00000000
  17         0.00000000
  18        -0.00000000
  19         0.00000000
  20         0.00000000
  21        -0.00000000
  22        -0.00000000
  23        -0.00000000
  24         0.00000000
  25         0.00000000
  26         0.00000000
  27        -0.00000000
  28        -0.00000000
  29        -0.00000000
  30         0.00000000
  31         0.00000000
  32        -0.00000000
  33        -0.00000000
  34        -0.00000000
  35         0.00000000
  36         0.00000000
  37         0.00000000
  38        -0.00000000
  39        -0.00000000
  40        -0.00000000
  41        -0.00000000
  42         0.00000000
  43        -0.00000000
  44        -0.00000000
  45        -0.00000000
  46         0.00000000
  47         0.00000000
  48        -0.00000000
  49         0.00000000
  50         0.00000000
  51        -0.00000000
  52         0.00000000
  53         0.00000000
  54        -0.00000000
  55        -0.00000000
  56        -0.00000000
  57         0.00000000
  58        -0.00000000
  59         0.00000000
  60         0.00000000
  61         0.00000000
Sym=     3a  
Ene=     3.0243
Spin= Alpha
Occup=    0.00000
   1         0.00000000
   2        -0.00000000
   3         0.00000000
   4        -0.00000000
   5         0.00000000
   6        -0.00000000
   7         0.00000000
   8        -0.00000000
   9         0.00000000
  10        -0.00000000
  11         0.00000000
  12        -0.00000000
  13         0.00000000
  14        -0.00000000
  15        -0.00000000
  16         0.00000000
  17         0.00005414
  18         0.00000000
  19        -0.00000000
  20        -0.00048381
  21        -0.00000000
  22         0.00000000
  23         0.00233991
  24        -0.00000000
  25        -0.00000001
  26        -0.00853733
  27         0.00000000
  28         0.00000002
  29         0.02698798
  30        -0.00000000
  31        -0.00000006
  32        -0.07842331
  33        -0.00000000
  34         0.00000016
  35         0.21105341
  36         0.00000000
  37        -0.00000037
  38        -0.48537986
  39         0.00000000
  40         0.00000096
  41         1.25839548
  42        -0.00000000
  43         0.00000000
  44         0.00000000
  45        -0.00000000
  46        -0.00000000
  47         0.00000000
  48        -0.00000000
  49        -0.00000000
  50         0.00000000
  51         0.00000000
  52        -0.00000000
  53         0.00000000
  54         0.00000000
  55        -0.00000000
  56        -0.00000000
  57         0.00000000
  58        -0.00000000
  59        -0.00000000
  60         0.00000000
  61         0.00000000
Sym=     4a  
Ene=     3.0243
Spin= Alpha
Occup=    0.00000
   1         0.00000000
   2         0.00000000
   3         0.00000000
   4         0.00000000
   5         0.00000000
   6         0.00000000
   7         0.00000000
   8         0.00000000
   9         0.00000000
  10        -0.00000000
  11         0.00000000
  12         0.00000000
  13         0.00000000
  14        -0.00000000
  15         0.00005414
  16        -0.00000000
  17         0.00000000
  18        -0.00048381
  19         0.00000000
  20         0.00000000
  21         0.00233991
  22        -0.00000000
  23        -0.00000000
  24        -0.00853733
  25         0.00000000
  26         0.00000000
  27         0.02698798
  28         0.00000000
  29        -0.00000000
  30        -0.07842331
  31        -0.00000000
  32        -0.00000000
  33         0.21105341
  34        -0.00000000
  35         0.00000000
  36        -0.48537986
  37         0.00000000
  38         0.00000000
  39         1.25839548
  40        -0.00000000
  41        -0.00000000
  42         0.00000000
  43         0.00000000
  44        -0.00000000
  45        -0.00000000
  46         0.00000000
  47         0.00000000
  48        -0.00000000
  49         0.00000000
  50         0.00000000
  51        -0.00000000
  52         0.00000000
  53         0.00000000
  54        -0.00000000
  55        -0.00000000
  56        -0.00000000
  57         0.00000000
  58        -0.00000000
  59         0.00000000
  60         0.00000000
  61         0.00000000
Sym=     5a  
Ene=     3.0243
Spin= Alpha
Occup=    0.00000
   1         0.00000000
   2        -0.00000000
   3         0.00000000
   4        -0.00000000
   5         0.00000000
   6         0.00000000
   7        -0.00000000
   8         0.00000000
   9        -0.00000000
  10         0.00000000
  11        -0.00000000
  12         0.00000000
  13        -0.00000000
  14         0.00000000
  15         0.00000000
  16         0.00005414
  17        -0.00000000
  18        -0.00000000
  19        -0.00048381
  20         0.00000000
  21         0.00000000
  22         0.00233991
  23        -0.00000000
  24         0.00000000
  25        -0.00853733
  26         0.00000001
  27        -0.00000000
  28         0.02698798
  29        -0.00000002
  30         0.00000000
  31        -0.07842331
  32         0.00000006
  33         0.00000000
  34         0.21105341
  35        -0.00000016
  36        -0.00000000
  37        -0.48537986
  38         0.00000037
  39         0.00000000
  40         1.25839548
  41        -0.00000096
  42        -0.00000000
  43        -0.00000000
  44        -0.00000000
  45         0.00000000
  46         0.00000000
  47        -0.00000000
  48         0.00000000
  49         0.00000000
  50        -0.00000000
  51        -0.00000000
  52        -0.00000000
  53        -0.00000000
  54        -0.00000000
  55         0.00000000
  56        -0.00000000
  57        -0.00000000
  58         0.00000000
  59         0.00000000
  60        -0.00000000
  61         0.00000000
Sym=     6a  
Ene=     3.0385
Spin= Alpha
Occup=    0.00000
   1        -0.00000018
   2         0.00000215
   3        -0.00001533
   4         0.00008345
   5        -0.00036008
   6         0.00154192
   7        -0.00461068
   8         0.01981357
   9        -0.03779086
  10         0.14581539
  11        -0.27923420
  12         0.66797257
  13        -1.83112510
  14         1.93422875
  15         0.00000000
  16        -0.00000000
  17         0.00000000
  18        -0.00000000
  19         0.00000000
  20        -0.00000000
  21         0.00000000
  22        -0.00000000
  23         0.00000000
  24         0.00000000
  25         0.00000000
  26        -0.00000000
  27        -0.00000000
  28        -0.00000000
  29         0.00000000
  30         0.00000000
  31         0.00000000
  32        -0.00000000
  33         0.00000000
  34        -0.00000000
  35         0.00000000
  36        -0.00000000
  37         0.00000000
  38        -0.00000000
  39        -0.00000000
  40        -0.00000000
  41         0.00000000
  42        -0.00000000
  43         0.00000000
  44         0.00000000
  45        -0.00000000
  46        -0.00000000
  47         0.00000000
  48        -0.00000000
  49        -0.00000000
  50         0.00000000
  51         0.00000000
  52        -0.00000000
  53         0.00000000
  54         0.00000000
  55        -0.00000000
  56        -0.00000000
  57         0.00000000
  58        -0.00000000
  59        -0.00000000
  60         0.00000000
  61         0.00000000
Sym=     7a  
Ene=     3.0954
Spin= Alpha
Occup=    0.00000
   1        -0.00000000
   2         0.00000000
   3        -0.00000000
   4        -0.00000000
   5        -0.00000000
   6         0.00000000
   7        -0.00000000
   8         0.00000000
   9         0.00000000
  10        -0.00000000
  11         0.00000000
  12        -0.00000000
  13         0.00000000
  14        -0.00000000
  15         0.00000000
  16        -0.00017520
  17        -0.00000000
  18        -0.00000000
  19         0.00156768
  20         0.00000000
  21         0.00000000
  22        -0.00760347
  23        -0.00000000
  24        -0.00000000
  25         0.02792513
  26         0.00000000
  27        -0.00000000
  28        -0.08961760
  29        -0.00000000
  30         0.00000000
  31         0.26936035
  32         0.00000000
  33         0.00000000
  34        -0.77967746
  35        -0.00000001
  36        -0.00000000
  37         2.05621769
  38         0.00000003
  39         0.00000000
  40        -1.01234483
  41        -0.00000001
  42        -0.00000000
  43        -0.00000000
  44         0.00000000
  45         0.00000000
  46        -0.00000000
  47         0.00000000
  48         0.00000000
  49        -0.00000000
  50         0.00000000
  51        -0.00000000
  52        -0.00000000
  53        -0.00000000
  54         0.00000000
  55        -0.00000000
  56        -0.00000000
  57         0.00000000
  58         0.00000000
  59         0.00000000
  60         0.00000000
  61        -0.00000000
Sym=     8a  
Ene=     3.0954
Spin= Alpha
Occup=    0.00000
   1        -0.00000000
   2        -0.00000000
   3        -0.00000000
   4        -0.00000000
   5        -0.00000000
   6        -0.00000000
   7        -0.00000000
   8        -0.00000000
   9        -0.00000000
  10        -0.00000000
  11        -0.00000000
  12        -0.00000000
  13        -0.00000000
  14         0.00000000
  15        -0.00017520
  16         0.00000000
  17        -0.00000000
  18         0.00156768
  19        -0.00000000
  20        -0.00000000
  21        -0.00760347
  22         0.00000000
  23         0.00000000
  24         0.02792513
  25        -0.00000000
  26        -0.00000000
  27        -0.08961760
  28        -0.00000000
  29         0.00000000
  30         0.26936035
  31         0.00000000
  32         0.00000000
  33        -0.77967746
  34         0.00000000
  35         0.00000000
  36         2.05621769
  37        -0.00000000
  38        -0.00000000
  39        -1.01234483
  40         0.00000000
  41         0.00000000
  42         0.00000000
  43        -0.00000000
  44         0.00000000
  45         0.00000000
  46         0.00000000
  47         0.00000000
  48         0.00000000
  49        -0.00000000
  50        -0.00000000
  51        -0.00000000
  52         0.00000000
  53        -0.00000000
  54         0.00000000
  55         0.00000000
  56         0.00000000
  57         0.00000000
  58         0.00000000
  59        -0.00000000
  60        -0.00000000
  61        -0.00000000
Sym=     9a  
Ene=     3.0954
Spin= Alpha
Occup=    0.00000
   1         0.00000000
   2        -0.00000000
   3         0.00000000
   4        -0.00000000
   5         0.00000000
   6        -0.00000000
   7         0.00000000
   8        -0.00000000
   9         0.00000000
  10        -0.00000000
  11         0.00000000
  12        -0.00000000
  13         0.00000000
  14        -0.00000000
  15        -0.00000000
  16         0.00000000
  17        -0.00017520
  18         0.00000000
  19        -0.00000000
  20         0.00156768
  21        -0.00000000
  22         0.00000000
  23        -0.00760347
  24        -0.00000000
  25        -0.00000000
  26         0.02792513
  27         0.00000000
  28         0.00000000
  29        -0.08961760
  30        -0.00000000
  31        -0.00000000
  32         0.26936035
  33        -0.00000000
  34         0.00000001
  35        -0.77967746
  36         0.00000000
  37        -0.00000003
  38         2.05621769
  39         0.00000000
  40         0.00000001
  41        -1.01234483
  42        -0.00000000
  43         0.00000000
  44         0.00000000
  45         0.00000000
  46         0.00000000
  47         0.00000000
  48        -0.00000000
  49        -0.00000000
  50         0.00000000
  51        -0.00000000
  52        -0.00000000
  53         0.00000000
  54         0.00000000
  55        -0.00000000
  56         0.00000000
  57         0.00000000
  58        -0.00000000
  59        -0.00000000
  60         0.00000000
  61        -0.00000000
Sym=    10a  
Ene=     3.1944
Spin= Alpha
Occup=    0.00000
   1        -0.00000000
   2         0.00000000
   3        -0.00000000
   4         0.00000000
   5        -0.00000000
   6        -0.00000000
   7         0.00000000
   8         0.00000000
   9        -0.00000000
  10         0.00000000
  11        -0.00000000
  12         0.00000000
  13        -0.00000000
  14         0.00000000
  15        -0.00000000
  16         0.00000000
  17         0.00000000
  18         0.00000000
  19        -0.00000000
  20        -0.00000000
  21        -0.00000000
  22         0.00000000
  23         0.00000000
  24        -0.00000000
  25        -0.00000000
  26        -0.00000000
  27         0.00000000
  28         0.00000000
  29         0.00000000
  30        -0.00000000
  31         0.00000000
  32        -0.00000000
  33        -0.00000000
  34        -0.00000000
  35         0.00000000
  36         0.00000000
  37        -0.00000000
  38        -0.00000000
  39        -0.00000000
  40         0.00000000
  41         0.00000000
  42        -0.00226657
  43         0.00485089
  44        -0.00625640
  45        -0.00046034
  46        -0.00963604
  47         0.01158900
  48        -0.02480269
  49         0.03198907
  50         0.00235374
  51         0.04926923
  52        -0.04866524
  53         0.10415298
  54        -0.13433043
  55        -0.00988397
  56        -0.20689434
  57         0.20444862
  58        -0.43755941
  59         0.56433860
  60         0.04152379
  61         0.86918844
Sym=    11a  
Ene=     3.1944
Spin= Alpha
Occup=    0.00000
   1        -0.00000000
   2         0.00000000
   3        -0.00000000
   4         0.00000000
   5        -0.00000000
   6         0.00000000
   7        -0.00000000
   8         0.00000000
   9         0.00000000
  10        -0.00000000
  11         0.00000000
  12        -0.00000000
  13         0.00000000
  14        -0.00000000
  15         0.00000000
  16        -0.00000000
  17        -0.00000000
  18        -0.00000000
  19         0.00000000
  20         0.00000000
  21         0.00000000
  22        -0.00000000
  23        -0.00000000
  24         0.00000000
  25         0.00000000
  26         0.00000000
  27        -0.00000000
  28        -0.00000000
  29        -0.00000000
  30         0.00000000
  31        -0.00000000
  32         0.00000000
  33         0.00000000
  34         0.00000000
  35        -0.00000000
  36        -0.00000000
  37         0.00000000
  38         0.00000000
  39         0.00000000
  40        -0.00000000
  41        -0.00000000
  42         0.00496899
  43         0.00022055
  44         0.00036308
  45        -0.01163877
  46        -0.00073749
  47        -0.02540654
  48        -0.00112766
  49        -0.00185646
  50         0.05950922
  51         0.00377080
  52         0.10668867
  53         0.00473535
  54         0.00779576
  55        -0.24989472
  56        -0.01583457
  57        -0.44821215
  58        -0.01989380
  59        -0.03275093
  60         1.04983832
  61         0.06652295
Sym=    12a  
Ene=     3.1944
Spin= Alpha
Occup=    0.00000
   1        -0.00000000
   2         0.00000000
   3        -0.00000000
   4         0.00000000
   5         0.00000000
   6        -0.00000000
   7        -0.00000000
   8         0.00000000
   9        -0.00000000
  10         0.00000000
  11         0.00000000
  12        -0.00000000
  13         0.00000000
  14        -0.00000000
  15         0.00000000
  16        -0.00000000
  17         0.00000000
  18        -0.00000000
  19         0.00000000
  20        -0.00000000
  21         0.00000000
  22        -0.00000000
  23         0.00000000
  24         0.00000000
  25        -0.00000000
  26        -0.00000000
  27        -0.00000000
  28         0.00000000
  29         0.00000000
  30         0.00000000
  31         0.00000000
  32        -0.00000000
  33         0.00000000
  34        -0.00000000
  35         0.00000000
  36        -0.00000000
  37         0.00000000
  38         0.00000000
  39         0.00000000
  40        -0.00000000
  41        -0.00000000
  42        -0.00100822
  43        -0.00911901
  44         0.00468792
  45         0.00001176
  46        -0.00739775
  47         0.00515506
  48         0.04662563
  49        -0.02396940
  50        -0.00006012
  51         0.03782481
  52        -0.02164745
  53        -0.19579317
  54         0.10065376
  55         0.00025246
  56        -0.15883625
  57         0.09094358
  58         0.82255107
  59        -0.42285875
  60        -0.00106061
  61         0.66729054
Sym=    13a  
Ene=     3.1944
Spin= Alpha
Occup=    0.00000
   1         0.00000000
   2         0.00000000
   3        -0.00000000
   4         0.00000000
   5         0.00000000
   6        -0.00000000
   7         0.00000000
   8        -0.00000000
   9         0.00000000
  10        -0.00000000
  11         0.00000000
  12        -0.00000000
  13         0.00000000
  14        -0.00000000
  15         0.00000000
  16         0.00000000
  17        -0.00000000
  18        -0.00000000
  19        -0.00000000
  20         0.00000000
  21         0.00000000
  22         0.00000000
  23        -0.00000000
  24         0.00000000
  25        -0.00000000
  26         0.00000000
  27        -0.00000000
  28         0.00000000
  29        -0.00000000
  30         0.00000000
  31        -0.00000000
  32         0.00000000
  33         0.00000000
  34         0.00000000
  35        -0.00000000
  36        -0.00000000
  37        -0.00000000
  38         0.00000000
  39         0.00000000
  40         0.00000000
  41        -0.00000000
  42         0.00141979
  43        -0.00729279
  44        -0.00997794
  45        -0.00000002
  46         0.00247315
  47        -0.00725939
  48         0.03728813
  49         0.05101735
  50         0.00000011
  51        -0.01264526
  52         0.03048409
  53        -0.15658259
  54        -0.21423515
  55        -0.00000048
  56         0.05310076
  57        -0.12806739
  58         0.65782261
  59         0.90002807
  60         0.00000201
  61        -0.22308279
Sym=    14a  
Ene=     3.1944
Spin= Alpha
Occup=    0.00000
   1        -0.00000000
   2         0.00000000
   3        -0.00000000
   4         0.00000000
   5        -0.00000000
   6         0.00000000
   7        -0.00000000
   8         0.00000000
   9        -0.00000000
  10         0.00000000
  11        -0.00000000
  12         0.00000000
  13        -0.00000000
  14         0.00000000
  15        -0.00000000
  16         0.00000000
  17         0.00000000
  18         0.00000000
  19        -0.00000000
  20        -0.00000000
  21        -0.00000000
  22         0.00000000
  23         0.00000000
  24        -0.00000000
  25        -0.00000000
  26        -0.00000000
  27         0.00000000
  28         0.00000000
  29         0.00000000
  30        -0.00000000
  31         0.00000000
  32        -0.00000000
  33        -0.00000000
  34        -0.00000000
  35         0.00000000
  36         0.00000000
  37        -0.00000000
  38        -0.00000000
  39        -0.00000000
  40         0.00000000
  41         0.00000000
  42        -0.01131440
  43        -0.00097744
  44        -0.00025704
  45        -0.00502028
  46         0.00257602
  47         0.05785072
  48         0.00499769
  49         0.00131427
  50         0.02566876
  51        -0.01317122
  52        -0.24293025
  53        -0.02098658
  54        -0.00551895
  55        -0.10778982
  56         0.05530938
  57         1.02057971
  58         0.08816720
  59         0.02318576
  60         0.45283823
  61        -0.23236147
Sym=    15a  
Ene=     3.2520
Spin= Alpha
Occup=    0.00000
   1         0.00000084
   2        -0.00001027
   3         0.00007367
   4        -0.00039195
   5         0.00180033
   6        -0.00665962
   7         0.02718828
   8        -0.07088953
   9         0.27016381
  10        -0.54920137
  11         1.72673172
  12        -4.32245157
  13         4.39328893
  14        -1.39665541
  15         0.00000000
  16        -0.00000000
  17         0.00000000
  18        -0.00000000
  19         0.00000000
  20        -0.00000000
  21         0.00000000
  22        -0.00000000
  23         0.00000000
  24         0.00000000
  25         0.00000000
  26        -0.00000000
  27        -0.00000000
  28        -0.00000000
  29         0.00000000
  30         0.00000000
  31         0.00000000
  32        -0.00000000
  33         0.00000000
  34        -0.00000000
  35         0.00000000
  36        -0.00000000
  37         0.00000000
  38        -0.00000000
  39         0.00000000
  40        -0.00000000
  41         0.00000000
  42        -0.00000000
  43         0.00000000
  44         0.00000000
  45        -0.00000000
  46        -0.00000000
  47         0.00000000
  48        -0.00000000
  49        -0.00000000
  50        -0.00000000
  51         0.00000000
  52        -0.00000000
  53         0.00000000
  54         0.00000000
  55         0.00000000
  56        -0.00000000
  57         0.00000000
  58        -0.00000000
  59        -0.00000000
  60         0.00000000
  61         0.00000000
Sym=    16a  
Ene=     3.2725
Spin= Alpha
Occup=    0.00000
   1        -0.00000000
   2         0.00000000
   3        -0.00000000
   4         0.00000000
   5        -0.00000000
   6         0.00000000
   7        -0.00000000
   8         0.00000000
   9        -0.00000000
  10         0.00000000
  11        -0.00000000
  12         0.00000000
  13        -0.00000000
  14         0.00000000
  15        -0.00000000
  16         0.00000000
  17         0.00048206
  18         0.00000000
  19        -0.00000000
  20        -0.00432606
  21        -0.00000000
  22         0.00000002
  23         0.02112083
  24        -0.00000000
  25        -0.00000006
  26        -0.07873550
  27         0.00000000
  28         0.00000019
  29         0.26110420
  30        -0.00000000
  31        -0.00000062
  32        -0.83986870
  33        -0.00000000
  34         0.00000198
  35         2.70051420
  36         0.00000000
  37        -0.00000154
  38        -2.09522173
  39        -0.00000000
  40         0.00000046
  41         0.62439656
  42         0.00000000
  43        -0.00000000
  44        -0.00000000
  45        -0.00000000
  46         0.00000000
  47        -0.00000000
  48         0.00000000
  49         0.00000000
  50         0.00000000
  51        -0.00000000
  52         0.00000000
  53        -0.00000000
  54        -0.00000000
  55        -0.00000000
  56         0.00000000
  57        -0.00000000
  58         0.00000000
  59         0.00000000
  60         0.00000000
  61        -0.00000000
Sym=    17a  
Ene=     3.2725
Spin= Alpha
Occup=    0.00000
   1        -0.00000000
   2         0.00000000
   3        -0.00000000
   4         0.00000000
   5         0.00000000
   6        -0.00000000
   7         0.00000000
   8        -0.00000000
   9         0.00000000
  10        -0.00000000
  11         0.00000000
  12        -0.00000000
  13         0.00000000
  14        -0.00000000
  15         0.00000000
  16         0.00048206
  17        -0.00000000
  18        -0.00000000
  19        -0.00432606
  20         0.00000000
  21         0.00000000
  22         0.02112083
  23        -0.00000002
  24         0.00000000
  25        -0.07873550
  26         0.00000006
  27        -0.00000000
  28         0.26110420
  29        -0.00000019
  30         0.00000000
  31        -0.83986870
  32         0.00000062
  33         0.00000000
  34         2.70051420
  35        -0.00000198
  36        -0.00000000
  37        -2.09522173
  38         0.00000154
  39         0.00000000
  40         0.62439656
  41        -0.00000046
  42        -0.00000000
  43         0.00000000
  44         0.00000000
  45         0.00000000
  46        -0.00000000
  47         0.00000000
  48        -0.00000000
  49        -0.00000000
  50        -0.00000000
  51         0.00000000
  52        -0.00000000
  53         0.00000000
  54         0.00000000
  55         0.00000000
  56        -0.00000000
  57         0.00000000
  58        -0.00000000
  59        -0.00000000
  60        -0.00000000
  61         0.00000000
Sym=    18a  
Ene=     3.2725
Spin= Alpha
Occup=    0.00000
   1         0.00000000
   2         0.00000000
   3         0.00000000
   4         0.00000000
   5         0.00000000
   6         0.00000000
   7         0.00000000
   8         0.00000000
   9         0.00000000
  10         0.00000000
  11         0.00000000
  12         0.00000000
  13         0.00000000
  14        -0.00000000
  15         0.00048206
  16         0.00000000
  17         0.00000000
  18        -0.00432606
  19        -0.00000000
  20        -0.00000000
  21         0.02112083
  22         0.00000000
  23        -0.00000000
  24        -0.07873550
  25        -0.00000000
  26         0.00000000
  27         0.26110420
  28         0.00000000
  29        -0.00000000
  30        -0.83986870
  31        -0.00000000
  32         0.00000000
  33         2.70051420
  34         0.00000000
  35        -0.00000000
  36        -2.09522173
  37         0.00000000
  38         0.00000000
  39         0.62439656
  40        -0.00000000
  41        -0.00000000
  42        -0.00000000
  43         0.00000000
  44        -0.00000000
  45        -0.00000000
  46        -0.00000000
  47        -0.00000000
  48        -0.00000000
  49         0.00000000
  50         0.00000000
  51         0.00000000
  52        -0.00000000
  53         0.00000000
  54        -0.00000000
  55        -0.00000000
  56        -0.00000000
  57        -0.00000000
  58        -0.00000000
  59         0.00000000
  60         0.00000000
  61        -0.00000000
Sym=    19a  
Ene=     3.6948
Spin= Alpha
Occup=    0.00000
   1         0.00000000
   2        -0.00000000
   3         0.00000000
   4        -0.00000000
   5        -0.00000000
   6        -0.00000000
   7         0.00000000
   8        -0.00000000
   9         0.00000000
  10        -0.00000000
  11         0.00000000
  12        -0.00000000
  13         0.00000000
  14        -0.00000000
  15         0.00000000
  16         0.00000000
  17         0.00000000
  18        -0.00000000
  19        -0.00000000
  20        -0.00000000
  21         0.00000000
  22         0.00000000
  23         0.00000000
  24         0.00000000
  25        -0.00000000
  26        -0.00000000
  27        -0.00000000
  28         0.00000000
  29         0.00000000
  30         0.00000000
  31        -0.00000000
  32        -0.00000000
  33         0.00000000
  34         0.00000000
  35         0.00000000
  36         0.00000000
  37        -0.00000000
  38        -0.00000000
  39        -0.00000000
  40        -0.00000000
  41         0.00000000
  42         0.01883207
  43        -0.03444247
  44        -0.00751159
  45         0.00895581
  46         0.02662299
  47        -0.10559857
  48         0.19313201
  49         0.04212032
  50        -0.05021860
  51        -0.14928523
  52         0.56544872
  53        -1.03416414
  54        -0.22554170
  55         0.26890558
  56         0.79937775
  57        -0.26911015
  58         0.49218267
  59         0.10734052
  60        -0.12797839
  61        -0.38044239
Sym=    20a  
Ene=     3.6948
Spin= Alpha
Occup=    0.00000
   1         0.00000000
   2        -0.00000000
   3        -0.00000000
   4        -0.00000000
   5         0.00000000
   6        -0.00000000
   7         0.00000000
   8        -0.00000000
   9         0.00000000
  10         0.00000000
  11        -0.00000000
  12         0.00000000
  13        -0.00000000
  14         0.00000000
  15        -0.00000000
  16        -0.00000000
  17         0.00000000
  18         0.00000000
  19         0.00000000
  20        -0.00000000
  21         0.00000000
  22        -0.00000000
  23         0.00000000
  24        -0.00000000
  25         0.00000000
  26        -0.00000000
  27         0.00000000
  28        -0.00000000
  29         0.00000000
  30        -0.00000000
  31         0.00000000
  32        -0.00000000
  33         0.00000000
  34        -0.00000000
  35         0.00000000
  36        -0.00000000
  37         0.00000000
  38        -0.00000000
  39         0.00000000
  40         0.00000000
  41         0.00000000
  42        -0.00438622
  43         0.02680399
  44         0.00736016
  45        -0.00022120
  46         0.03993033
  47         0.02459523
  48        -0.15030015
  49        -0.04127120
  50         0.00124036
  51        -0.22390451
  52        -0.13170008
  53         0.80481235
  54         0.22099491
  55        -0.00664178
  56         1.19894165
  57         0.06267912
  58        -0.38302884
  59        -0.10517660
  60         0.00316098
  61        -0.57060411
Sym=    21a  
Ene=     3.6948
Spin= Alpha
Occup=    0.00000
   1        -0.00000000
   2         0.00000000
   3         0.00000000
   4         0.00000000
   5        -0.00000000
   6         0.00000000
   7        -0.00000000
   8         0.00000000
   9         0.00000000
  10        -0.00000000
  11         0.00000000
  12        -0.00000000
  13         0.00000000
  14        -0.00000000
  15        -0.00000000
  16         0.00000000
  17        -0.00000000
  18         0.00000000
  19        -0.00000000
  20         0.00000000
  21         0.00000000
  22         0.00000000
  23        -0.00000000
  24        -0.00000000
  25        -0.00000000
  26         0.00000000
  27         0.00000000
  28         0.00000000
  29        -0.00000000
  30        -0.00000000
  31        -0.00000000
  32         0.00000000
  33         0.00000000
  34         0.00000000
  35        -0.00000000
  36        -0.00000000
  37        -0.00000000
  38         0.00000000
  39         0.00000000
  40         0.00000000
  41        -0.00000000
  42         0.03857116
  43         0.02093914
  44        -0.02058825
  45         0.00005995
  46        -0.00602361
  47        -0.21628311
  48        -0.11741368
  49         0.11544613
  50        -0.00033615
  51         0.03377665
  52         1.15813136
  53         0.62871511
  54        -0.61817948
  55         0.00179997
  56        -0.18086386
  57        -0.55118155
  58        -0.29922009
  59         0.29420594
  60        -0.00085665
  61         0.08607730
Sym=    22a  
Ene=     3.6948
Spin= Alpha
Occup=    0.00000
   1         0.00000000
   2        -0.00000000
   3         0.00000000
   4        -0.00000000
   5         0.00000000
   6        -0.00000000
   7         0.00000000
   8        -0.00000000
   9         0.00000000
  10        -0.00000000
  11         0.00000000
  12        -0.00000000
  13         0.00000000
  14        -0.00000000
  15        -0.00000000
  16        -0.00000000
  17        -0.00000000
  18         0.00000000
  19         0.00000000
  20         0.00000000
  21         0.00000000
  22        -0.00000000
  23        -0.00000000
  24        -0.00000000
  25         0.00000000
  26         0.00000000
  27         0.00000000
  28        -0.00000000
  29        -0.00000000
  30        -0.00000000
  31         0.00000000
  32         0.00000000
  33         0.00000000
  34        -0.00000000
  35        -0.00000000
  36        -0.00000000
  37         0.00000000
  38         0.00000000
  39         0.00000000
  40        -0.00000000
  41        -0.00000000
  42         0.02262531
  43        -0.00080032
  44         0.04300861
  45         0.00000027
  46        -0.00490501
  47        -0.12686869
  48         0.00448772
  49        -0.24116562
  50        -0.00000152
  51         0.02750424
  52         0.67934385
  53        -0.02403037
  54         1.29136971
  55         0.00000815
  56        -0.14727698
  57        -0.32331548
  58         0.01143661
  59        -0.61459277
  60        -0.00000388
  61         0.07009253
Sym=    23a  
Ene=     3.6948
Spin= Alpha
Occup=    0.00000
   1         0.00000000
   2        -0.00000000
   3         0.00000000
   4        -0.00000000
   5         0.00000000
   6        -0.00000000
   7         0.00000000
   8        -0.00000000
   9         0.00000000
  10        -0.00000000
  11         0.00000000
  12        -0.00000000
  13         0.00000000
  14         0.00000000
  15         0.00000000
  16        -0.00000000
  17        -0.00000000
  18        -0.00000000
  19         0.00000000
  20         0.00000000
  21         0.00000000
  22        -0.00000000
  23        -0.00000000
  24        -0.00000000
  25         0.00000000
  26         0.00000000
  27        -0.00000000
  28        -0.00000000
  29        -0.00000000
  30         0.00000000
  31         0.00000000
  32         0.00000000
  33         0.00000000
  34        -0.00000000
  35        -0.00000000
  36        -0.00000000
  37         0.00000000
  38         0.00000000
  39         0.00000000
  40         0.00000000
  41        -0.00000000
  42        -0.00358057
  43         0.00652068
  44         0.00146023
  45         0.04802172
  46        -0.00477357
  47         0.02007760
  48        -0.03656391
  49        -0.00818808
  50        -0.26927603
  51         0.02676724
  52        -0.10750952
  53         0.19578880
  54         0.04384473
  55         1.44189258
  56        -0.14333056
  57         0.05116627
  58        -0.09318043
  59        -0.02086672
  60        -0.68623009
  61         0.06821434
Sym=    24a  
Ene=     3.6998
Spin= Alpha
Occup=    0.00000
   1         0.00000000
   2        -0.00000000
   3         0.00000000
   4        -0.00000000
   5         0.00000000
   6        -0.00000000
   7         0.00000000
   8        -0.00000000
   9         0.00000000
  10        -0.00000000
  11         0.00000000
  12        -0.00000000
  13         0.00000000
  14        -0.00000000
  15        -0.00000000
  16         0.00000000
  17        -0.00131252
  18         0.00000000
  19        -0.00000002
  20         0.01186021
  21         0.00000000
  22         0.00000010
  23        -0.05879218
  24        -0.00000000
  25        -0.00000039
  26         0.22666064
  27         0.00000000
  28         0.00000138
  29        -0.80632728
  30         0.00000000
  31        -0.00000498
  32         2.90007643
  33         0.00000000
  34         0.00000487
  35        -2.83517965
  36        -0.00000000
  37        -0.00000241
  38         1.40373043
  39         0.00000000
  40         0.00000062
  41        -0.36341970
  42        -0.00000000
  43        -0.00000000
  44        -0.00000000
  45         0.00000000
  46         0.00000000
  47         0.00000000
  48         0.00000000
  49         0.00000000
  50        -0.00000000
  51        -0.00000000
  52        -0.00000000
  53        -0.00000000
  54        -0.00000000
  55         0.00000000
  56         0.00000000
  57         0.00000000
  58         0.00000000
  59         0.00000000
  60        -0.00000000
  61        -0.00000000
Sym=    25a  
Ene=     3.6998
Spin= Alpha
Occup=    0.00000
   1        -0.00000000
   2        -0.00000000
   3         0.00000000
   4         0.00000000
   5         0.00000000
   6        -0.00000000
   7         0.00000000
   8         0.00000000
   9        -0.00000000
  10         0.00000000
  11        -0.00000000
  12         0.00000000
  13        -0.00000000
  14         0.00000000
  15        -0.00000000
  16        -0.00131252
  17        -0.00000000
  18         0.00000000
  19         0.01186021
  20         0.00000002
  21        -0.00000000
  22        -0.05879218
  23        -0.00000010
  24         0.00000000
  25         0.22666064
  26         0.00000039
  27        -0.00000000
  28        -0.80632728
  29        -0.00000138
  30        -0.00000000
  31         2.90007643
  32         0.00000498
  33        -0.00000000
  34        -2.83517965
  35        -0.00000487
  36         0.00000000
  37         1.40373043
  38         0.00000241
  39        -0.00000000
  40        -0.36341970
  41        -0.00000062
  42        -0.00000000
  43         0.00000000
  44        -0.00000000
  45         0.00000000
  46         0.00000000
  47         0.00000000
  48        -0.00000000
  49         0.00000000
  50        -0.00000000
  51        -0.00000000
  52        -0.00000000
  53         0.00000000
  54        -0.00000000
  55         0.00000000
  56         0.00000000
  57         0.00000000
  58        -0.00000000
  59         0.00000000
  60        -0.00000000
  61        -0.00000000
Sym=    26a  
Ene=     3.6998
Spin= Alpha
Occup=    0.00000
   1        -0.00000000
   2        -0.00000000
   3        -0.00000000
   4        -0.00000000
   5        -0.00000000
   6        -0.00000000
   7        -0.00000000
   8        -0.00000000
   9        -0.00000000
  10        -0.00000000
  11         0.00000000
  12         0.00000000
  13         0.00000000
  14        -0.00000000
  15        -0.00131252
  16        -0.00000000
  17         0.00000000
  18         0.01186021
  19         0.00000000
  20         0.00000000
  21        -0.05879218
  22        -0.00000000
  23        -0.00000000
  24         0.22666064
  25         0.00000000
  26         0.00000000
  27        -0.80632728
  28        -0.00000000
  29         0.00000000
  30         2.90007643
  31         0.00000000
  32        -0.00000000
  33        -2.83517965
  34        -0.00000000
  35         0.00000000
  36         1.40373043
  37         0.00000000
  38        -0.00000000
  39        -0.36341970
  40        -0.00000000
  41         0.00000000
  42         0.00000000
  43        -0.00000000
  44         0.00000000
  45        -0.00000000
  46         0.00000000
  47         0.00000000
  48        -0.00000000
  49         0.00000000
  50         0.00000000
  51        -0.00000000
  52         0.00000000
  53         0.00000000
  54        -0.00000000
  55        -0.00000000
  56        -0.00000000
  57         0.00000000
  58        -0.00000000
  59         0.00000000
  60         0.00000000
  61         0.00000000
Sym=    27a  
Ene=     4.0133
Spin= Alpha
Occup=    0.00000
   1        -0.00000312
   2         0.00003812
   3        -0.00027191
   4         0.00147357
   5        -0.00647001
   6         0.02691044
   7        -0.08815906
   8         0.34624992
   9        -0.82589051
  10         3.09933202
  11        -6.31134339
  12         5.86685293
  13        -2.70907225
  14         0.67282290
  15         0.00000000
  16         0.00000000
  17         0.00000000
  18        -0.00000000
  19        -0.00000000
  20         0.00000000
  21        -0.00000000
  22         0.00000000
  23        -0.00000000
  24         0.00000000
  25        -0.00000000
  26         0.00000000
  27        -0.00000000
  28         0.00000000
  29        -0.00000000
  30         0.00000000
  31        -0.00000000
  32         0.00000000
  33        -0.00000000
  34         0.00000000
  35        -0.00000000
  36         0.00000000
  37         0.00000000
  38         0.00000000
  39        -0.00000000
  40        -0.00000000
  41        -0.00000000
  42         0.00000000
  43        -0.00000000
  44         0.00000000
  45         0.00000000
  46        -0.00000000
  47        -0.00000000
  48         0.00000000
  49        -0.00000000
  50        -0.00000000
  51         0.00000000
  52         0.00000000
  53        -0.00000000
  54         0.00000000
  55         0.00000000
  56        -0.00000000
  57        -0.00000000
  58         0.00000000
  59        -0.00000000
  60        -0.00000000
  61         0.00000000
Sym=    28a  
Ene=     4.7411
Spin= Alpha
Occup=    0.00000
   1         0.00000000
   2         0.00000000
   3         0.00000000
   4        -0.00000000
   5         0.00000000
   6        -0.00000000
   7         0.00000000
   8         0.00000000
   9        -0.00000000
  10         0.00000000
  11        -0.00000000
  12         0.00000000
  13        -0.00000000
  14         0.00000000
  15         0.00000000
  16         0.00000000
  17         0.00365297
  18        -0.00000000
  19        -0.00000000
  20        -0.03355060
  21         0.00000000
  22         0.00000000
  23         0.17223192
  24         0.00000000
  25        -0.00000001
  26        -0.71464487
  27        -0.00000000
  28         0.00000002
  29         2.86764427
  30         0.00000000
  31        -0.00000003
  32        -3.05078464
  33         0.00000000
  34         0.00000002
  35         1.90124666
  36        -0.00000000
  37        -0.00000001
  38        -0.82579696
  39         0.00000000
  40         0.00000000
  41         0.21096474
  42         0.00000000
  43        -0.00000000
  44        -0.00000000
  45        -0.00000000
  46        -0.00000000
  47        -0.00000000
  48         0.00000000
  49         0.00000000
  50         0.00000000
  51         0.00000000
  52         0.00000000
  53         0.00000000
  54        -0.00000000
  55        -0.00000000
  56        -0.00000000
  57        -0.00000000
  58        -0.00000000
  59         0.00000000
  60         0.00000000
  61         0.00000000
Sym=    29a  
Ene=     4.7411
Spin= Alpha
Occup=    0.00000
   1        -0.00000000
   2        -0.00000000
   3         0.00000000
   4         0.00000000
   5         0.00000000
   6        -0.00000000
   7         0.00000000
   8        -0.00000000
   9         0.00000000
  10        -0.00000000
  11         0.00000000
  12        -0.00000000
  13         0.00000000
  14        -0.00000000
  15        -0.00000000
  16         0.00365297
  17        -0.00000000
  18         0.00000000
  19        -0.03355060
  20         0.00000000
  21         0.00000000
  22         0.17223192
  23        -0.00000000
  24        -0.00000000
  25        -0.71464487
  26         0.00000001
  27         0.00000000
  28         2.86764427
  29        -0.00000002
  30         0.00000000
  31        -3.05078464
  32         0.00000003
  33         0.00000000
  34         1.90124666
  35        -0.00000002
  36        -0.00000000
  37        -0.82579696
  38         0.00000001
  39         0.00000000
  40         0.21096474
  41        -0.00000000
  42        -0.00000000
  43        -0.00000000
  44         0.00000000
  45         0.00000000
  46         0.00000000
  47         0.00000000
  48         0.00000000
  49        -0.00000000
  50        -0.00000000
  51        -0.00000000
  52        -0.00000000
  53        -0.00000000
  54        -0.00000000
  55         0.00000000
  56         0.00000000
  57         0.00000000
  58         0.00000000
  59         0.00000000
  60        -0.00000000
  61        -0.00000000
Sym=    30a  
Ene=     4.7411
Spin= Alpha
Occup=    0.00000
   1        -0.00000000
   2        -0.00000000
   3        -0.00000000
   4        -0.00000000
   5        -0.00000000
   6        -0.00000000
   7        -0.00000000
   8        -0.00000000
   9        -0.00000000
  10        -0.00000000
  11        -0.00000000
  12        -0.00000000
  13        -0.00000000
  14         0.00000000
  15         0.00365297
  16        -0.00000000
  17        -0.00000000
  18        -0.03355060
  19         0.00000000
  20         0.00000000
  21         0.17223192
  22        -0.00000000
  23         0.00000000
  24        -0.71464487
  25         0.00000000
  26        -0.00000000
  27         2.86764427
  28        -0.00000000
  29         0.00000000
  30        -3.05078464
  31         0.00000000
  32        -0.00000000
  33         1.90124666
  34        -0.00000000
  35         0.00000000
  36        -0.82579696
  37        -0.00000000
  38        -0.00000000
  39         0.21096474
  40         0.00000000
  41         0.00000000
  42         0.00000000
  43        -0.00000000
  44         0.00000000
  45         0.00000000
  46         0.00000000
  47         0.00000000
  48         0.00000000
  49        -0.00000000
  50        -0.00000000
  51        -0.00000000
  52         0.00000000
  53        -0.00000000
  54         0.00000000
  55         0.00000000
  56         0.00000000
  57         0.00000000
  58         0.00000000
  59        -0.00000000
  60        -0.00000000
  61         0.00000000
Sym=    31a  
Ene=     5.1102
Spin= Alpha
Occup=    0.00000
   1         0.00000000
   2         0.00000000
   3        -0.00000000
   4         0.00000000
   5        -0.00000000
   6        -0.00000000
   7         0.00000000
   8        -0.00000000
   9         0.00000000
  10        -0.00000000
  11         0.00000000
  12        -0.00000000
  13         0.00000000
  14        -0.00000000
  15         0.00000000
  16        -0.00000000
  17        -0.00000000
  18        -0.00000000
  19         0.00000000
  20        -0.00000000
  21        -0.00000000
  22        -0.00000000
  23         0.00000000
  24         0.00000000
  25         0.00000000
  26        -0.00000000
  27        -0.00000000
  28        -0.00000000
  29         0.00000000
  30         0.00000000
  31         0.00000000
  32        -0.00000000
  33        -0.00000000
  34        -0.00000000
  35         0.00000000
  36         0.00000000
  37         0.00000000
  38        -0.00000000
  39        -0.00000000
  40        -0.00000000
  41         0.00000000
  42         0.00285135
  43        -0.15334840
  44        -0.06666239
  45        -0.04803476
  46         0.12088685
  47        -0.02051891
  48         1.10352836
  49         0.47971702
  50         0.34566855
  51        -0.86992802
  52         0.01352061
  53        -0.72715221
  54        -0.31610179
  55        -0.22777271
  56         0.57322503
  57        -0.00457969
  58         0.24630054
  59         0.10706980
  60         0.07715103
  61        -0.19416242
Sym=    32a  
Ene=     5.1102
Spin= Alpha
Occup=    0.00000
   1         0.00000000
   2        -0.00000000
   3         0.00000000
   4         0.00000000
   5         0.00000000
   6         0.00000000
   7         0.00000000
   8        -0.00000000
   9         0.00000000
  10         0.00000000
  11        -0.00000000
  12         0.00000000
  13        -0.00000000
  14         0.00000000
  15        -0.00000000
  16         0.00000000
  17         0.00000000
  18        -0.00000000
  19        -0.00000000
  20         0.00000000
  21         0.00000000
  22         0.00000000
  23        -0.00000000
  24        -0.00000000
  25        -0.00000000
  26         0.00000000
  27         0.00000000
  28         0.00000000
  29        -0.00000000
  30         0.00000000
  31        -0.00000000
  32        -0.00000000
  33         0.00000000
  34         0.00000000
  35        -0.00000000
  36        -0.00000000
  37        -0.00000000
  38         0.00000000
  39         0.00000000
  40         0.00000000
  41        -0.00000000
  42        -0.00672856
  43         0.03918865
  44        -0.16223746
  45        -0.10260652
  46        -0.08036535
  47         0.04842016
  48        -0.28201003
  49         1.16749598
  50         0.73837878
  51         0.57832649
  52        -0.03190568
  53         0.18582596
  54        -0.76930264
  55        -0.48654278
  56        -0.38107891
  57         0.01080707
  58        -0.06294285
  59         0.26057770
  60         0.16480147
  61         0.12907881
Sym=    33a  
Ene=     5.1102
Spin= Alpha
Occup=    0.00000
   1         0.00000000
   2         0.00000000
   3         0.00000000
   4        -0.00000000
   5         0.00000000
   6        -0.00000000
   7        -0.00000000
   8         0.00000000
   9        -0.00000000
  10         0.00000000
  11        -0.00000000
  12         0.00000000
  13        -0.00000000
  14         0.00000000
  15         0.00000000
  16        -0.00000000
  17         0.00000000
  18        -0.00000000
  19         0.00000000
  20        -0.00000000
  21         0.00000000
  22        -0.00000000
  23         0.00000000
  24         0.00000000
  25         0.00000000
  26        -0.00000000
  27        -0.00000000
  28        -0.00000000
  29         0.00000000
  30         0.00000000
  31         0.00000000
  32        -0.00000000
  33         0.00000000
  34        -0.00000000
  35         0.00000000
  36        -0.00000000
  37         0.00000000
  38        -0.00000000
  39        -0.00000000
  40        -0.00000000
  41         0.00000000
  42        -0.21170137
  43        -0.00114701
  44         0.00530719
  45        -0.00000811
  46         0.00646176
  47         1.52344898
  48         0.00825417
  49        -0.03819169
  50         0.00005833
  51        -0.04650022
  52        -1.00385212
  53        -0.00543895
  54         0.02516580
  55        -0.00003844
  56         0.03064057
  57         0.34002416
  58         0.00184228
  59        -0.00852414
  60         0.00001302
  61        -0.01037856
Sym=    34a  
Ene=     5.1102
Spin= Alpha
Occup=    0.00000
   1         0.00000000
   2         0.00000000
   3         0.00000000
   4         0.00000000
   5         0.00000000
   6        -0.00000000
   7         0.00000000
   8        -0.00000000
   9         0.00000000
  10        -0.00000000
  11         0.00000000
  12        -0.00000000
  13         0.00000000
  14        -0.00000000
  15        -0.00000000
  16        -0.00000000
  17        -0.00000000
  18         0.00000000
  19         0.00000000
  20        -0.00000000
  21        -0.00000000
  22        -0.00000000
  23        -0.00000000
  24        -0.00000000
  25         0.00000000
  26         0.00000000
  27         0.00000000
  28        -0.00000000
  29        -0.00000000
  30        -0.00000000
  31         0.00000000
  32         0.00000000
  33        -0.00000000
  34        -0.00000000
  35         0.00000000
  36         0.00000000
  37         0.00000000
  38        -0.00000000
  39        -0.00000000
  40        -0.00000000
  41         0.00000000
  42         0.00256303
  43        -0.00554072
  44         0.11650924
  45        -0.17638015
  46        -0.01292582
  47        -0.01844415
  48         0.03987221
  49        -0.83842575
  50         1.26926983
  51         0.09301704
  52         0.01215348
  53        -0.02627315
  54         0.55246712
  55        -0.83636487
  56        -0.06129208
  57        -0.00411662
  58         0.00889923
  59        -0.18713132
  60         0.28329298
  61         0.02076081
Sym=    35a  
Ene=     5.1102
Spin= Alpha
Occup=    0.00000
   1         0.00000000
   2         0.00000000
   3        -0.00000000
   4        -0.00000000
   5        -0.00000000
   6         0.00000000
   7         0.00000000
   8         0.00000000
   9         0.00000000
  10        -0.00000000
  11         0.00000000
  12        -0.00000000
  13         0.00000000
  14        -0.00000000
  15         0.00000000
  16        -0.00000000
  17        -0.00000000
  18        -0.00000000
  19         0.00000000
  20         0.00000000
  21        -0.00000000
  22        -0.00000000
  23        -0.00000000
  24         0.00000000
  25         0.00000000
  26         0.00000000
  27        -0.00000000
  28        -0.00000000
  29        -0.00000000
  30         0.00000000
  31         0.00000000
  32        -0.00000000
  33        -0.00000000
  34        -0.00000000
  35         0.00000000
  36         0.00000000
  37         0.00000000
  38        -0.00000000
  39        -0.00000000
  40         0.00000000
  41        -0.00000000
  42        -0.00335611
  43        -0.14073098
  44         0.02283130
  45         0.03071338
  46        -0.15364782
  47         0.02415132
  48         1.01273065
  49        -0.16429900
  50        -0.22102017
  51         1.10568308
  52        -0.01591412
  53        -0.66732252
  54         0.10826217
  55         0.14563768
  56        -0.72857202
  57         0.00539042
  58         0.22603506
  59        -0.03667049
  60        -0.04933030
  61         0.24678146
Sym=    36a  
Ene=     6.3059
Spin= Alpha
Occup=    0.00000
   1        -0.00001029
   2         0.00012560
   3        -0.00090075
   4         0.00482536
   5        -0.02206010
   6         0.08533633
   7        -0.34204986
   8         1.05800988
   9        -4.15942971
  10         7.45018780
  11        -6.29465345
  12         3.36955406
  13        -1.47543158
  14         0.34605576
  15         0.00000000
  16         0.00000000
  17        -0.00000000
  18        -0.00000000
  19        -0.00000000
  20         0.00000000
  21         0.00000000
  22         0.00000000
  23        -0.00000000
  24         0.00000000
  25        -0.00000000
  26         0.00000000
  27        -0.00000000
  28         0.00000000
  29        -0.00000000
  30         0.00000000
  31        -0.00000000
  32         0.00000000
  33         0.00000000
  34         0.00000000
  35        -0.00000000
  36        -0.00000000
  37        -0.00000000
  38         0.00000000
  39         0.00000000
  40        -0.00000000
  41        -0.00000000
  42        -0.00000000
  43         0.00000000
  44        -0.00000000
  45        -0.00000000
  46        -0.00000000
  47         0.00000000
  48        -0.00000000
  49         0.00000000
  50         0.00000000
  51         0.00000000
  52        -0.00000000
  53         0.00000000
  54         0.00000000
  55        -0.00000000
  56        -0.00000000
  57         0.00000000
  58        -0.00000000
  59        -0.00000000
  60         0.00000000
  61         0.00000000
Sym=    37a  
Ene=     7.3443
Spin= Alpha
Occup=    0.00000
   1        -0.00000000
   2         0.00000000
   3        -0.00000000
   4         0.00000000
   5        -0.00000000
   6         0.00000000
   7        -0.00000000
   8         0.00000000
   9        -0.00000000
  10         0.00000000
  11        -0.00000000
  12         0.00000000
  13        -0.00000000
  14         0.00000000
  15        -0.00000000
  16        -0.00000000
  17        -0.01060309
  18         0.00000000
  19         0.00000000
  20         0.10127846
  21        -0.00000000
  22        -0.00000000
  23        -0.56339860
  24        -0.00000000
  25         0.00000000
  26         2.67993504
  27         0.00000000
  28        -0.00000000
  29        -2.96408760
  30        -0.00000000
  31         0.00000000
  32         2.01107460
  33        -0.00000000
  34        -0.00000000
  35        -1.10320054
  36         0.00000000
  37         0.00000000
  38         0.47313604
  39        -0.00000000
  40        -0.00000000
  41        -0.12253614
  42        -0.00000000
  43        -0.00000000
  44         0.00000000
  45        -0.00000000
  46         0.00000000
  47         0.00000000
  48         0.00000000
  49        -0.00000000
  50         0.00000000
  51        -0.00000000
  52        -0.00000000
  53         0.00000000
  54         0.00000000
  55        -0.00000000
  56         0.00000000
  57         0.00000000
  58        -0.00000000
  59        -0.00000000
  60         0.00000000
  61        -0.00000000
Sym=    38a  
Ene=     7.3443
Spin= Alpha
Occup=    0.00000
   1        -0.00000000
   2        -0.00000000
   3         0.00000000
   4         0.00000000
   5         0.00000000
   6        -0.00000000
   7        -0.00000000
   8         0.00000000
   9        -0.00000000
  10         0.00000000
  11        -0.00000000
  12         0.00000000
  13        -0.00000000
  14         0.00000000
  15        -0.00000000
  16        -0.01060309
  17         0.00000000
  18         0.00000000
  19         0.10127846
  20        -0.00000000
  21        -0.00000000
  22        -0.56339860
  23         0.00000000
  24        -0.00000000
  25         2.67993504
  26        -0.00000000
  27         0.00000000
  28        -2.96408760
  29         0.00000000
  30        -0.00000000
  31         2.01107460
  32        -0.00000000
  33        -0.00000000
  34        -1.10320054
  35         0.00000000
  36         0.00000000
  37         0.47313604
  38        -0.00000000
  39        -0.00000000
  40        -0.12253614
  41         0.00000000
  42         0.00000000
  43        -0.00000000
  44         0.00000000
  45        -0.00000000
  46        -0.00000000
  47        -0.00000000
  48         0.00000000
  49         0.00000000
  50         0.00000000
  51         0.00000000
  52         0.00000000
  53        -0.00000000
  54        -0.00000000
  55        -0.00000000
  56        -0.00000000
  57        -0.00000000
  58         0.00000000
  59         0.00000000
  60         0.00000000
  61        -0.00000000
Sym=    39a  
Ene=     7.3443
Spin= Alpha
Occup=    0.00000
   1         0.00000000
   2         0.00000000
   3         0.00000000
   4         0.00000000
   5         0.00000000
   6         0.00000000
   7         0.00000000
   8         0.00000000
   9         0.00000000
  10         0.00000000
  11        -0.00000000
  12        -0.00000000
  13        -0.00000000
  14         0.00000000
  15        -0.01060309
  16         0.00000000
  17        -0.00000000
  18         0.10127846
  19        -0.00000000
  20        -0.00000000
  21        -0.56339860
  22         0.00000000
  23         0.00000000
  24         2.67993504
  25        -0.00000000
  26        -0.00000000
  27        -2.96408760
  28         0.00000000
  29        -0.00000000
  30         2.01107460
  31        -0.00000000
  32         0.00000000
  33        -1.10320054
  34         0.00000000
  35        -0.00000000
  36         0.47313604
  37        -0.00000000
  38         0.00000000
  39        -0.12253614
  40         0.00000000
  41        -0.00000000
  42        -0.00000000
  43         0.00000000
  44        -0.00000000
  45         0.00000000
  46        -0.00000000
  47        -0.00000000
  48         0.00000000
  49         0.00000000
  50        -0.00000000
  51         0.00000000
  52        -0.00000000
  53        -0.00000000
  54        -0.00000000
  55         0.00000000
  56        -0.00000000
  57        -0.00000000
  58         0.00000000
  59         0.00000000
  60        -0.00000000
  61        -0.00000000
Sym=    40a  
Ene=     9.3895
Spin= Alpha
Occup=    0.00000
   1         0.00000000
   2        -0.00000000
   3         0.00000000
   4        -0.00000000
   5         0.00000000
   6        -0.00000000
   7         0.00000000
   8        -0.00000000
   9         0.00000000
  10        -0.00000000
  11         0.00000000
  12        -0.00000000
  13         0.00000000
  14        -0.00000000
  15        -0.00000000
  16         0.00000000
  17         0.00000000
  18         0.00000000
  19        -0.00000000
  20         0.00000000
  21        -0.00000000
  22         0.00000000
  23         0.00000000
  24        -0.00000000
  25        -0.00000000
  26        -0.00000000
  27         0.00000000
  28         0.00000000
  29         0.00000000
  30        -0.00000000
  31        -0.00000000
  32        -0.00000000
  33        -0.00000000
  34         0.00000000
  35         0.00000000
  36         0.00000000
  37        -0.00000000
  38         0.00000000
  39         0.00000000
  40        -0.00000000
  41        -0.00000000
  42         0.01595034
  43        -0.02919391
  44        -0.39165111
  45         0.21442503
  46         1.29960890
  47        -0.01195053
  48         0.02187306
  49         0.29343817
  50        -0.16065444
  51        -0.97371065
  52         0.00555989
  53        -0.01017627
  54        -0.13651979
  55         0.07474321
  56         0.45301120
  57        -0.00182904
  58         0.00334768
  59         0.04491088
  60        -0.02458826
  61        -0.14902698
Sym=    41a  
Ene=     9.3895
Spin= Alpha
Occup=    0.00000
   1        -0.00000000
   2         0.00000000
   3        -0.00000000
   4        -0.00000000
   5         0.00000000
   6         0.00000000
   7         0.00000000
   8        -0.00000000
   9         0.00000000
  10        -0.00000000
  11         0.00000000
  12        -0.00000000
  13         0.00000000
  14        -0.00000000
  15        -0.00000000
  16         0.00000000
  17        -0.00000000
  18         0.00000000
  19        -0.00000000
  20         0.00000000
  21        -0.00000000
  22         0.00000000
  23        -0.00000000
  24         0.00000000
  25        -0.00000000
  26        -0.00000000
  27         0.00000000
  28         0.00000000
  29         0.00000000
  30        -0.00000000
  31        -0.00000000
  32        -0.00000000
  33        -0.00000000
  34         0.00000000
  35         0.00000000
  36         0.00000000
  37        -0.00000000
  38        -0.00000000
  39        -0.00000000
  40        -0.00000000
  41         0.00000000
  42        -0.06970719
  43         0.04341496
  44         1.28924361
  45         0.32786005
  46         0.33626393
  47         0.05222697
  48        -0.03252795
  49        -0.96594462
  50        -0.24564376
  51        -0.25194023
  52        -0.02429819
  53         0.01513337
  54         0.44939812
  55         0.11428382
  56         0.11721321
  57         0.00799337
  58        -0.00497842
  59        -0.14783839
  60        -0.03759592
  61        -0.03855960
Sym=    42a  
Ene=     9.3895
Spin= Alpha
Occup=    0.00000
   1        -0.00000000
   2        -0.00000000
   3        -0.00000000
   4        -0.00000000
   5         0.00000000
   6        -0.00000000
   7         0.00000000
   8        -0.00000000
   9        -0.00000000
  10         0.00000000
  11         0.00000000
  12        -0.00000000
  13         0.00000000
  14        -0.00000000
  15         0.00000000
  16        -0.00000000
  17        -0.00000000
  18        -0.00000000
  19         0.00000000
  20         0.00000000
  21         0.00000000
  22        -0.00000000
  23        -0.00000000
  24         0.00000000
  25         0.00000000
  26         0.00000000
  27        -0.00000000
  28        -0.00000000
  29        -0.00000000
  30         0.00000000
  31         0.00000000
  32         0.00000000
  33         0.00000000
  34        -0.00000000
  35        -0.00000000
  36        -0.00000000
  37        -0.00000000
  38         0.00000000
  39         0.00000000
  40         0.00000000
  41        -0.00000000
  42         1.35364095
  43        -0.22513865
  44         0.08013277
  45        -0.00004046
  46         0.00248463
  47        -1.01419327
  48         0.16868144
  49        -0.06003817
  50         0.00003031
  51        -0.00186157
  52         0.47184542
  53        -0.07847771
  54         0.02793228
  55        -0.00001410
  56         0.00086608
  57        -0.15522287
  58         0.02581679
  59        -0.00918888
  60         0.00000464
  61        -0.00028491
Sym=    43a  
Ene=     9.3895
Spin= Alpha
Occup=    0.00000
   1        -0.00000000
   2        -0.00000000
   3        -0.00000000
   4         0.00000000
   5        -0.00000000
   6         0.00000000
   7        -0.00000000
   8         0.00000000
   9        -0.00000000
  10         0.00000000
  11        -0.00000000
  12         0.00000000
  13        -0.00000000
  14         0.00000000
  15         0.00000000
  16         0.00000000
  17        -0.00000000
  18        -0.00000000
  19        -0.00000000
  20        -0.00000000
  21        -0.00000000
  22         0.00000000
  23         0.00000000
  24         0.00000000
  25        -0.00000000
  26        -0.00000000
  27        -0.00000000
  28         0.00000000
  29        -0.00000000
  30         0.00000000
  31        -0.00000000
  32         0.00000000
  33        -0.00000000
  34         0.00000000
  35        -0.00000000
  36         0.00000000
  37        -0.00000000
  38         0.00000000
  39        -0.00000000
  40         0.00000000
  41        -0.00000000
  42        -0.05257867
  43        -0.40307664
  44        -0.23475370
  45         1.25966318
  46        -0.28698910
  47         0.03939371
  48         0.30199856
  49         0.17588536
  50        -0.94378197
  51         0.21502188
  52        -0.01832761
  53        -0.14050245
  54        -0.08182927
  55         0.43908712
  56        -0.10003723
  57         0.00602923
  58         0.04622106
  59         0.02691936
  60        -0.14444638
  61         0.03290922
Sym=    44a  
Ene=     9.3895
Spin= Alpha
Occup=    0.00000
   1        -0.00000000
   2        -0.00000000
   3         0.00000000
   4        -0.00000000
   5         0.00000000
   6        -0.00000000
   7        -0.00000000
   8         0.00000000
   9         0.00000000
  10         0.00000000
  11         0.00000000
  12        -0.00000000
  13         0.00000000
  14        -0.00000000
  15         0.00000000
  16        -0.00000000
  17        -0.00000000
  18        -0.00000000
  19         0.00000000
  20         0.00000000
  21         0.00000000
  22        -0.00000000
  23        -0.00000000
  24        -0.00000000
  25         0.00000000
  26         0.00000000
  27        -0.00000000
  28        -0.00000000
  29         0.00000000
  30         0.00000000
  31         0.00000000
  32        -0.00000000
  33         0.00000000
  34        -0.00000000
  35         0.00000000
  36        -0.00000000
  37         0.00000000
  38        -0.00000000
  39         0.00000000
  40         0.00000000
  41         0.00000000
  42         0.22189372
  43         1.29366276
  44        -0.11130338
  45         0.38631210
  46        -0.07094387
  47        -0.16625023
  48        -0.96925560
  49         0.08339223
  50        -0.28943800
  51         0.05315353
  52         0.07734661
  53         0.45093852
  54        -0.03879758
  55         0.13465875
  56        -0.02472926
  57        -0.02544470
  58        -0.14834514
  59         0.01276323
  60        -0.04429866
  61         0.00813518
Sym=    45a  
Ene=    12.8490
Spin= Alpha
Occup=    0.00000
   1        -0.00003183
   2         0.00038910
   3        -0.00278583
   4         0.01513871
   5        -0.06840710
   6         0.28935021
   7        -1.09344305
   8         4.64392455
   9        -7.43098637
  10         6.07179028
  11        -3.66070345
  12         1.90217231
  13        -0.75276242
  14         0.18550670
  15        -0.00000000
  16         0.00000000
  17        -0.00000000
  18         0.00000000
  19        -0.00000000
  20        -0.00000000
  21        -0.00000000
  22         0.00000000
  23         0.00000000
  24        -0.00000000
  25        -0.00000000
  26        -0.00000000
  27         0.00000000
  28        -0.00000000
  29         0.00000000
  30        -0.00000000
  31         0.00000000
  32        -0.00000000
  33        -0.00000000
  34        -0.00000000
  35         0.00000000
  36         0.00000000
  37         0.00000000
  38        -0.00000000
  39        -0.00000000
  40        -0.00000000
  41         0.00000000
  42         0.00000000
  43        -0.00000000
  44         0.00000000
  45         0.00000000
  46         0.00000000
  47        -0.00000000
  48         0.00000000
  49        -0.00000000
  50        -0.00000000
  51        -0.00000000
  52         0.00000000
  53        -0.00000000
  54         0.00000000
  55         0.00000000
  56         0.00000000
  57        -0.00000000
  58         0.00000000
  59        -0.00000000
  60        -0.00000000
  61        -0.00000000
Sym=    46a  
Ene=    14.1670
Spin= Alpha
Occup=    0.00000
   1         0.00000000
   2        -0.00000000
   3         0.00000000
   4        -0.00000000
   5         0.00000000
   6        -0.00000000
   7         0.00000000
   8        -0.00000000
   9         0.00000000
  10         0.00000000
  11        -0.00000000
  12         0.00000000
  13        -0.00000000
  14         0.00000000
  15         0.00000000
  16         0.00000000
  17         0.03357444
  18        -0.00000000
  19        -0.00000000
  20        -0.35409953
  21         0.00000000
  22         0.00000000
  23         2.34081123
  24         0.00000000
  25        -0.00000000
  26        -2.65216097
  27        -0.00000000
  28         0.00000000
  29         1.88060307
  30         0.00000000
  31        -0.00000000
  32        -1.13288768
  33         0.00000000
  34         0.00000000
  35         0.61595319
  36        -0.00000000
  37        -0.00000000
  38        -0.26753668
  39         0.00000000
  40         0.00000000
  41         0.07014175
  42         0.00000000
  43        -0.00000000
  44         0.00000000
  45         0.00000000
  46        -0.00000000
  47        -0.00000000
  48         0.00000000
  49        -0.00000000
  50        -0.00000000
  51         0.00000000
  52         0.00000000
  53         0.00000000
  54        -0.00000000
  55        -0.00000000
  56        -0.00000000
  57        -0.00000000
  58         0.00000000
  59        -0.00000000
  60         0.00000000
  61         0.00000000
Sym=    47a  
Ene=    14.1670
Spin= Alpha
Occup=    0.00000
   1         0.00000000
   2        -0.00000000
   3         0.00000000
   4        -0.00000000
   5         0.00000000
   6        -0.00000000
   7         0.00000000
   8        -0.00000000
   9         0.00000000
  10        -0.00000000
  11         0.00000000
  12        -0.00000000
  13         0.00000000
  14        -0.00000000
  15         0.00000000
  16         0.03357444
  17        -0.00000000
  18        -0.00000000
  19        -0.35409953
  20         0.00000000
  21         0.00000000
  22         2.34081123
  23        -0.00000000
  24         0.00000000
  25        -2.65216097
  26         0.00000000
  27        -0.00000000
  28         1.88060307
  29        -0.00000000
  30         0.00000000
  31        -1.13288768
  32         0.00000000
  33         0.00000000
  34         0.61595319
  35        -0.00000000
  36        -0.00000000
  37        -0.26753668
  38         0.00000000
  39         0.00000000
  40         0.07014175
  41        -0.00000000
  42         0.00000000
  43        -0.00000000
  44         0.00000000
  45        -0.00000000
  46         0.00000000
  47         0.00000000
  48         0.00000000
  49        -0.00000000
  50         0.00000000
  51        -0.00000000
  52         0.00000000
  53         0.00000000
  54         0.00000000
  55        -0.00000000
  56         0.00000000
  57         0.00000000
  58         0.00000000
  59        -0.00000000
  60         0.00000000
  61         0.00000000
Sym=    48a  
Ene=    14.1670
Spin= Alpha
Occup=    0.00000
   1         0.00000000
   2         0.00000000
   3         0.00000000
   4         0.00000000
   5         0.00000000
   6         0.00000000
   7         0.00000000
   8         0.00000000
   9        -0.00000000
  10        -0.00000000
  11         0.00000000
  12         0.00000000
  13         0.00000000
  14        -0.00000000
  15         0.03357444
  16        -0.00000000
  17         0.00000000
  18        -0.35409953
  19         0.00000000
  20         0.00000000
  21         2.34081123
  22        -0.00000000
  23        -0.00000000
  24        -2.65216097
  25         0.00000000
  26         0.00000000
  27         1.88060307
  28         0.00000000
  29        -0.00000000
  30        -1.13288768
  31        -0.00000000
  32        -0.00000000
  33         0.61595319
  34        -0.00000000
  35         0.00000000
  36        -0.26753668
  37         0.00000000
  38        -0.00000000
  39         0.07014175
  40        -0.00000000
  41        -0.00000000
  42         0.00000000
  43         0.00000000
  44        -0.00000000
  45        -0.00000000
  46         0.00000000
  47         0.00000000
  48        -0.00000000
  49         0.00000000
  50         0.00000000
  51        -0.00000000
  52         0.00000000
  53         0.00000000
  54        -0.00000000
  55        -0.00000000
  56        -0.00000000
  57         0.00000000
  58        -0.00000000
  59         0.00000000
  60         0.00000000
  61         0.00000000
Sym=    49a  
Ene=    30.2590
Spin= Alpha
Occup=    0.00000
   1         0.00009355
   2        -0.00114419
   3         0.00824329
   4        -0.04509911
   5         0.21345659
   6        -0.93420105
   7         4.27753158
   8        -6.48021872
   9         5.35324762
  10        -3.53972512
  11         2.02409227
  12        -0.98656382
  13         0.43250483
  14        -0.10359159
  15         0.00000000
  16         0.00000000
  17         0.00000000
  18        -0.00000000
  19        -0.00000000
  20         0.00000000
  21         0.00000000
  22         0.00000000
  23        -0.00000000
  24         0.00000000
  25        -0.00000000
  26         0.00000000
  27        -0.00000000
  28        -0.00000000
  29        -0.00000000
  30         0.00000000
  31         0.00000000
  32         0.00000000
  33         0.00000000
  34        -0.00000000
  35        -0.00000000
  36        -0.00000000
  37         0.00000000
  38         0.00000000
  39         0.00000000
  40        -0.00000000
  41        -0.00000000
  42         0.00000000
  43        -0.00000000
  44         0.00000000
  45         0.00000000
  46         0.00000000
  47         0.00000000
  48         0.00000000
  49        -0.00000000
  50        -0.00000000
  51        -0.00000000
  52         0.00000000
  53        -0.00000000
  54        -0.00000000
  55         0.00000000
  56         0.00000000
  57         0.00000000
  58         0.00000000
  59         0.00000000
  60        -0.00000000
  61        -0.00000000
Sym=    50a  
Ene=    34.0240
Spin= Alpha
Occup=    0.00000
   1        -0.00000000
   2         0.00000000
   3        -0.00000000
   4         0.00000000
   5        -0.00000000
   6         0.00000000
   7        -0.00000000
   8         0.00000000
   9        -0.00000000
  10         0.00000000
  11         0.00000000
  12        -0.00000000
  13         0.00000000
  14        -0.00000000
  15        -0.00000000
  16        -0.00000000
  17        -0.13266498
  18         0.00000000
  19         0.00000000
  20         1.84676789
  21        -0.00000000
  22        -0.00000000
  23        -2.08590579
  24        -0.00000000
  25         0.00000000
  26         1.54451447
  27         0.00000000
  28        -0.00000000
  29        -0.99148580
  30        -0.00000000
  31         0.00000000
  32         0.59665165
  33        -0.00000000
  34        -0.00000000
  35        -0.32928619
  36         0.00000000
  37         0.00000000
  38         0.14465487
  39        -0.00000000
  40         0.00000000
  41        -0.03819989
  42        -0.00000000
  43        -0.00000000
  44         0.00000000
  45        -0.00000000
  46        -0.00000000
  47         0.00000000
  48         0.00000000
  49        -0.00000000
  50         0.00000000
  51         0.00000000
  52         0.00000000
  53        -0.00000000
  54         0.00000000
  55        -0.00000000
  56        -0.00000000
  57         0.00000000
  58         0.00000000
  59        -0.00000000
  60        -0.00000000
  61         0.00000000
Sym=    51a  
Ene=    34.0240
Spin= Alpha
Occup=    0.00000
   1         0.00000000
   2        -0.00000000
   3         0.00000000
   4        -0.00000000
   5         0.00000000
   6        -0.00000000
   7         0.00000000
   8        -0.00000000
   9         0.00000000
  10        -0.00000000
  11         0.00000000
  12        -0.00000000
  13         0.00000000
  14        -0.00000000
  15        -0.00000000
  16        -0.13266498
  17         0.00000000
  18         0.00000000
  19         1.84676789
  20        -0.00000000
  21        -0.00000000
  22        -2.08590579
  23         0.00000000
  24        -0.00000000
  25         1.54451447
  26        -0.00000000
  27         0.00000000
  28        -0.99148580
  29         0.00000000
  30        -0.00000000
  31         0.59665165
  32        -0.00000000
  33        -0.00000000
  34        -0.32928619
  35         0.00000000
  36         0.00000000
  37         0.14465487
  38        -0.00000000
  39         0.00000000
  40        -0.03819989
  41         0.00000000
  42        -0.00000000
  43         0.00000000
  44        -0.00000000
  45         0.00000000
  46        -0.00000000
  47        -0.00000000
  48        -0.00000000
  49         0.00000000
  50        -0.00000000
  51         0.00000000
  52        -0.00000000
  53        -0.00000000
  54        -0.00000000
  55         0.00000000
  56        -0.00000000
  57        -0.00000000
  58        -0.00000000
  59         0.00000000
  60        -0.00000000
  61        -0.00000000
Sym=    52a  
Ene=    34.0240
Spin= Alpha
Occup=    0.00000
   1        -0.00000000
   2        -0.00000000
   3        -0.00000000
   4        -0.00000000
   5        -0.00000000
   6        -0.00000000
   7        -0.00000000
   8        -0.00000000
   9        -0.00000000
  10        -0.00000000
  11         0.00000000
  12         0.00000000
  13         0.00000000
  14        -0.00000000
  15        -0.13266498
  16        -0.00000000
  17         0.00000000
  18         1.84676789
  19         0.00000000
  20         0.00000000
  21        -2.08590579
  22        -0.00000000
  23        -0.00000000
  24         1.54451447
  25         0.00000000
  26        -0.00000000
  27        -0.99148580
  28        -0.00000000
  29         0.00000000
  30         0.59665165
  31         0.00000000
  32        -0.00000000
  33        -0.32928619
  34        -0.00000000
  35         0.00000000
  36         0.14465487
  37        -0.00000000
  38        -0.00000000
  39        -0.03819989
  40         0.00000000
  41         0.00000000
  42         0.00000000
  43        -0.00000000
  44         0.00000000
  45        -0.00000000
  46         0.00000000
  47         0.00000000
  48         0.00000000
  49        -0.00000000
  50         0.00000000
  51        -0.00000000
  52         0.00000000
  53         0.00000000
  54         0.00000000
  55        -0.00000000
  56         0.00000000
  57         0.00000000
  58         0.00000000
  59        -0.00000000
  60         0.00000000
  61         0.00000000
