[MOLDEN FORMAT]
[N_ATOMS]
                    1
[ATOMS] (AU)
BE          1      4           0.00000000      0.00000000      0.00000000
[5D]
[CHARGE] (MULLIKEN)
  -7.1054273576010019E-014
[GTO] (AU)
   1
   s   1
  0.226512276E+05  0.100000000E+01
   s   1
  0.337569042E+04  0.100000000E+01
   s   1
  0.761110750E+03  0.100000000E+01
   s   1
  0.211952220E+03  0.100000000E+01
   s   1
  0.672906915E+02  0.100000000E+01
   s   1
  0.233955492E+02  0.100000000E+01
   s   1
  0.873009437E+01  0.100000000E+01
   s   1
  0.347155909E+01  0.100000000E+01
   s   1
  0.145359614E+01  0.100000000E+01
   s   1
  0.609223615E+00  0.100000000E+01
   s   1
  0.257943686E+00  0.100000000E+01
   s   1
  0.104280176E+00  0.100000000E+01
   s   1
  0.424694270E-01  0.100000000E+01
   s   1
  0.148638490E-01  0.100000000E+01
   p   1
  0.337101840E+02  0.100000000E+01
   p   1
  0.805764950E+01  0.100000000E+01
   p   1
  0.283647140E+01  0.100000000E+01
   p   1
  0.109996570E+01  0.100000000E+01
   p   1
  0.443396400E+00  0.100000000E+01
   p   1
  0.182226400E+00  0.100000000E+01
   p   1
  0.757241000E-01  0.100000000E+01
   p   1
  0.316854000E-01  0.100000000E+01
   p   1
  0.110899000E-01  0.100000000E+01
   d   1
  0.140000000E+01  0.100000000E+01
   d   1
  0.490000000E+00  0.100000000E+01
   d   1
  0.171500000E+00  0.100000000E+01
   d   1
  0.600250000E-01  0.100000000E+01
 
[MO]
Sym=     1a  
Ene=     0.0000
Spin= Alpha
Occup=    1.99687
   1         0.00005336
   2         0.00041846
   3         0.00222815
   4         0.00957110
   5         0.03486613
   6         0.10615801
   7         0.24591591
   8         0.38669321
   9         0.31213894
  10         0.06529515
  11        -0.00469148
  12        -0.00594494
  13        -0.00287458
  14         0.00009234
  15         0.00000000
  16         0.00000000
  17        -0.00000000
  18        -0.00000000
  19         0.00000000
  20        -0.00000000
  21         0.00000000
  22         0.00000000
  23        -0.00000000
  24        -0.00000000
  25         0.00000000
  26        -0.00000000
  27         0.00000000
  28         0.00000000
  29        -0.00000000
  30        -0.00000000
  31        -0.00000000
  32         0.00000000
  33         0.00000000
  34        -0.00000000
  35         0.00000000
  36         0.00000000
  37        -0.00000000
  38         0.00000000
  39         0.00000000
  40         0.00000000
  41        -0.00000000
  42        -0.00000000
  43         0.00000000
  44         0.00000000
  45        -0.00000000
  46        -0.00000000
  47         0.00000000
  48         0.00000000
  49         0.00000000
  50         0.00000000
  51        -0.00000000
  52        -0.00000000
  53         0.00000000
  54         0.00000000
  55        -0.00000000
  56        -0.00000000
  57        -0.00000000
  58         0.00000000
  59         0.00000000
  60        -0.00000000
  61         0.00000000
Sym=     2a  
Ene=     0.0000
Spin= Alpha
Occup=    1.80733
   1        -0.00000938
   2        -0.00007358
   3        -0.00039223
   4        -0.00169247
   5        -0.00624132
   6        -0.01964147
   7        -0.04892068
   8        -0.09300274
   9        -0.13029689
  10        -0.06125341
  11         0.29010898
  12         0.62416424
  13         0.23149084
  14        -0.00191649
  15         0.00000000
  16        -0.00000000
  17         0.00000000
  18         0.00000000
  19        -0.00000000
  20         0.00000000
  21         0.00000000
  22        -0.00000000
  23         0.00000000
  24         0.00000000
  25        -0.00000000
  26         0.00000002
  27         0.00000000
  28        -0.00000000
  29         0.00000004
  30         0.00000000
  31        -0.00000000
  32         0.00000001
  33        -0.00000001
  34         0.00000000
  35        -0.00000005
  36         0.00000000
  37         0.00000000
  38        -0.00000002
  39        -0.00000000
  40        -0.00000000
  41         0.00000001
  42        -0.00000000
  43         0.00000000
  44         0.00000000
  45        -0.00000000
  46        -0.00000000
  47        -0.00000000
  48         0.00000000
  49         0.00000000
  50        -0.00000000
  51        -0.00000000
  52         0.00000000
  53        -0.00000000
  54        -0.00000000
  55         0.00000000
  56         0.00000000
  57         0.00000000
  58        -0.00000000
  59        -0.00000000
  60         0.00000000
  61         0.00000000
Sym=     3a  
Ene=     0.0000
Spin= Alpha
Occup=    0.00063
   1        -0.00000000
   2        -0.00000000
   3        -0.00000000
   4        -0.00000003
   5        -0.00000004
   6        -0.00000051
   7         0.00000026
   8        -0.00000032
   9         0.00000084
  10         0.00000005
  11        -0.00000118
  12         0.00000082
  13        -0.00000013
  14         0.00000007
  15        -0.05313181
  16        -0.00048351
  17         0.05896063
  18        -0.39003937
  19        -0.00354945
  20         0.43282852
  21        -0.30280958
  22        -0.00275564
  23         0.33602922
  24        -0.01106636
  25        -0.00010071
  26         0.01228040
  27         0.02853116
  28         0.00025964
  29        -0.03166116
  30         0.07086077
  31         0.00064485
  32        -0.07863453
  33         0.03426821
  34         0.00031185
  35        -0.03802759
  36         0.00159413
  37         0.00001451
  38        -0.00176901
  39         0.00000695
  40         0.00000006
  41        -0.00000771
  42        -0.00000000
  43         0.00000000
  44         0.00000000
  45         0.00000000
  46        -0.00000000
  47         0.00000001
  48        -0.00000000
  49        -0.00000000
  50        -0.00000000
  51         0.00000000
  52         0.00000000
  53        -0.00000000
  54         0.00000000
  55        -0.00000000
  56         0.00000000
  57         0.00000000
  58        -0.00000000
  59        -0.00000000
  60         0.00000000
  61         0.00000000
Sym=     4a  
Ene=     0.0000
Spin= Alpha
Occup=    0.00063
   1        -0.00000000
   2        -0.00000000
   3        -0.00000000
   4        -0.00000002
   5        -0.00000006
   6        -0.00000040
   7         0.00000012
   8        -0.00000031
   9         0.00000112
  10        -0.00000059
  11        -0.00000048
  12         0.00000037
  13         0.00000005
  14         0.00000004
  15         0.05896242
  16        -0.00023393
  17         0.05313151
  18         0.43284168
  19        -0.00171730
  20         0.39003714
  21         0.33603944
  22        -0.00133324
  23         0.30280785
  24         0.01228077
  25        -0.00004872
  26         0.01106630
  27        -0.03166213
  28         0.00012562
  29        -0.02853100
  30        -0.07863692
  31         0.00031199
  32        -0.07086036
  33        -0.03802875
  34         0.00015088
  35        -0.03426801
  36        -0.00176907
  37         0.00000702
  38        -0.00159412
  39        -0.00000771
  40         0.00000003
  41        -0.00000695
  42        -0.00000000
  43        -0.00000000
  44         0.00000000
  45        -0.00000000
  46         0.00000000
  47         0.00000000
  48         0.00000000
  49        -0.00000000
  50         0.00000000
  51        -0.00000000
  52         0.00000000
  53         0.00000000
  54         0.00000000
  55         0.00000000
  56        -0.00000000
  57         0.00000000
  58         0.00000000
  59        -0.00000000
  60        -0.00000000
  61        -0.00000000
Sym=     5a  
Ene=     0.0000
Spin= Alpha
Occup=    0.00063
   1         0.00000000
   2         0.00000000
   3         0.00000000
   4         0.00000000
   5         0.00000000
   6         0.00000005
   7        -0.00000006
   8         0.00000011
   9        -0.00000017
  10         0.00000006
  11         0.00000008
  12        -0.00000006
  13        -0.00000000
  14        -0.00000000
  15        -0.00014989
  16         0.07936806
  17         0.00051579
  18        -0.00110035
  19         0.58263900
  20         0.00378642
  21        -0.00085426
  22         0.45233571
  23         0.00293961
  24        -0.00003122
  25         0.01653085
  26         0.00010743
  27         0.00008049
  28        -0.04261971
  29        -0.00027697
  30         0.00019991
  31        -0.10585157
  32        -0.00068790
  33         0.00009667
  34        -0.05118965
  35        -0.00033267
  36         0.00000450
  37        -0.00238135
  38        -0.00001548
  39         0.00000002
  40        -0.00001034
  41        -0.00000007
  42        -0.00000000
  43         0.00000000
  44        -0.00000000
  45        -0.00000000
  46        -0.00000000
  47         0.00000000
  48         0.00000000
  49         0.00000001
  50         0.00000000
  51         0.00000000
  52        -0.00000000
  53         0.00000000
  54         0.00000000
  55         0.00000000
  56         0.00000000
  57         0.00000000
  58        -0.00000000
  59         0.00000000
  60         0.00000000
  61        -0.00000000
Sym=     6a  
Ene=     0.0000
Spin= Alpha
Occup=    0.00125
   1         0.00008502
   2         0.00069434
   3         0.00353895
   4         0.01702419
   5         0.06850784
   6         0.34204253
   7         0.74091265
   8        -0.19511861
   9        -0.79237512
  10        -0.18069419
  11         0.07988281
  12         0.19346071
  13         0.06992032
  14        -0.00026658
  15         0.00000000
  16        -0.00000000
  17         0.00000003
  18         0.00000000
  19        -0.00000002
  20         0.00000025
  21         0.00000000
  22        -0.00000002
  23         0.00000025
  24        -0.00000000
  25        -0.00000001
  26         0.00000007
  27        -0.00000000
  28        -0.00000001
  29         0.00000015
  30         0.00000000
  31        -0.00000003
  32         0.00000031
  33        -0.00000000
  34        -0.00000002
  35         0.00000016
  36        -0.00000000
  37         0.00000000
  38        -0.00000001
  39         0.00000000
  40        -0.00000000
  41         0.00000000
  42        -0.00000000
  43         0.00000000
  44         0.00000000
  45        -0.00000000
  46        -0.00000000
  47         0.00000000
  48        -0.00000000
  49        -0.00000000
  50         0.00000000
  51         0.00000000
  52        -0.00000000
  53         0.00000000
  54         0.00000000
  55        -0.00000000
  56        -0.00000000
  57         0.00000000
  58        -0.00000000
  59        -0.00000000
  60         0.00000000
  61         0.00000000
Sym=     7a  
Ene=     0.0000
Spin= Alpha
Occup=    0.06422
   1         0.00000000
   2         0.00000000
   3        -0.00000000
   4         0.00000000
   5        -0.00000000
   6         0.00000003
   7        -0.00000005
   8         0.00000014
   9        -0.00000007
  10        -0.00000006
  11        -0.00000001
  12        -0.00000005
  13         0.00000010
  14         0.00000003
  15        -0.00000129
  16         0.00114714
  17         0.00000422
  18        -0.00000821
  19         0.00727653
  20         0.00002675
  21        -0.00002340
  22         0.02073398
  23         0.00007621
  24        -0.00005658
  25         0.05014064
  26         0.00018430
  27        -0.00025304
  28         0.22423202
  29         0.00082422
  30        -0.00060913
  31         0.53977673
  32         0.00198407
  33        -0.00033837
  34         0.29984101
  35         0.00110213
  36        -0.00000663
  37         0.00587817
  38         0.00002161
  39        -0.00000233
  40         0.00206104
  41         0.00000758
  42        -0.00000000
  43         0.00000000
  44        -0.00000000
  45        -0.00000000
  46         0.00000000
  47        -0.00000000
  48         0.00000000
  49        -0.00000002
  50        -0.00000000
  51        -0.00000000
  52         0.00000000
  53        -0.00000000
  54        -0.00000000
  55        -0.00000000
  56        -0.00000000
  57         0.00000000
  58        -0.00000000
  59        -0.00000000
  60        -0.00000000
  61         0.00000000
Sym=     8a  
Ene=     0.0000
Spin= Alpha
Occup=    0.06422
   1        -0.00000000
   2        -0.00000000
   3        -0.00000000
   4        -0.00000001
   5         0.00000000
   6        -0.00000012
   7         0.00000017
   8        -0.00000076
   9         0.00000043
  10         0.00000013
  11         0.00000067
  12         0.00000007
  13        -0.00000073
  14        -0.00000017
  15         0.00087180
  16        -0.00000176
  17         0.00074560
  18         0.00552997
  19        -0.00001114
  20         0.00472948
  21         0.01575727
  22        -0.00003175
  23         0.01347632
  24         0.03810553
  25        -0.00007679
  26         0.03258956
  27         0.17041039
  28        -0.00034340
  29         0.14574264
  30         0.41021602
  31        -0.00082665
  32         0.35083522
  33         0.22787125
  34        -0.00045920
  35         0.19488576
  36         0.00446724
  37        -0.00000900
  38         0.00382059
  39         0.00156636
  40        -0.00000316
  41         0.00133962
  42        -0.00000000
  43        -0.00000000
  44         0.00000000
  45         0.00000000
  46         0.00000000
  47        -0.00000001
  48        -0.00000001
  49         0.00000000
  50        -0.00000000
  51         0.00000000
  52         0.00000000
  53        -0.00000000
  54        -0.00000000
  55        -0.00000000
  56         0.00000000
  57        -0.00000000
  58        -0.00000000
  59        -0.00000000
  60         0.00000000
  61         0.00000000
Sym=     9a  
Ene=     0.0000
Spin= Alpha
Occup=    0.06422
   1        -0.00000000
   2        -0.00000000
   3         0.00000000
   4        -0.00000001
   5         0.00000001
   6        -0.00000018
   7         0.00000025
   8        -0.00000081
   9         0.00000004
  10         0.00000106
  11        -0.00000019
  12         0.00000061
  13        -0.00000095
  14        -0.00000021
  15        -0.00074560
  16        -0.00000405
  17         0.00087179
  18        -0.00472949
  19        -0.00002566
  20         0.00552992
  21        -0.01347634
  22        -0.00007313
  23         0.01575711
  24        -0.03258960
  25        -0.00017684
  26         0.03810516
  27        -0.14574283
  28        -0.00079085
  29         0.17040874
  30        -0.35083567
  31        -0.00190374
  32         0.41021206
  33        -0.19488601
  34        -0.00105751
  35         0.22786905
  36        -0.00382059
  37        -0.00002073
  38         0.00446720
  39        -0.00133962
  40        -0.00000727
  41         0.00156635
  42        -0.00000000
  43         0.00000000
  44         0.00000000
  45        -0.00000000
  46        -0.00000000
  47        -0.00000001
  48         0.00000001
  49         0.00000000
  50         0.00000000
  51        -0.00000000
  52        -0.00000000
  53        -0.00000000
  54        -0.00000000
  55         0.00000000
  56         0.00000000
  57        -0.00000000
  58         0.00000000
  59        -0.00000000
  60        -0.00000000
  61         0.00000000
Sym=    10a  
Ene=     0.0275
Spin= Alpha
Occup=    0.00000
   1        -0.00000000
   2        -0.00000000
   3        -0.00000000
   4        -0.00000000
   5        -0.00000000
   6        -0.00000000
   7        -0.00000000
   8        -0.00000000
   9        -0.00000000
  10         0.00000002
  11        -0.00000002
  12         0.00000004
  13        -0.00000014
  14         0.00000016
  15         0.00000048
  16        -0.00013626
  17        -0.00000169
  18         0.00000112
  19        -0.00032201
  20        -0.00000400
  21         0.00002154
  22        -0.00616481
  23        -0.00007664
  24        -0.00002427
  25         0.00694793
  26         0.00008637
  27         0.00009259
  28        -0.02650283
  29        -0.00032948
  30        -0.00042205
  31         0.12080824
  32         0.00150186
  33         0.00067837
  34        -0.19417838
  35        -0.00241397
  36        -0.00232944
  37         0.66678697
  38         0.00828932
  39         0.00473317
  40        -1.35483517
  41        -0.01684295
  42         0.00000000
  43        -0.00000000
  44         0.00000000
  45         0.00000000
  46         0.00000000
  47        -0.00000000
  48         0.00000000
  49        -0.00000000
  50        -0.00000000
  51        -0.00000000
  52         0.00000000
  53        -0.00000000
  54         0.00000000
  55         0.00000000
  56        -0.00000000
  57        -0.00000000
  58         0.00000000
  59        -0.00000000
  60        -0.00000000
  61        -0.00000000
Sym=    11a  
Ene=     0.0275
Spin= Alpha
Occup=    0.00000
   1         0.00000000
   2         0.00000000
   3         0.00000000
   4         0.00000000
   5         0.00000000
   6         0.00000000
   7         0.00000001
   8         0.00000000
   9         0.00000001
  10        -0.00000011
  11         0.00000015
  12        -0.00000024
  13         0.00000089
  14        -0.00000106
  15        -0.00012062
  16         0.00000037
  17        -0.00006340
  18        -0.00028506
  19         0.00000087
  20        -0.00014984
  21        -0.00545729
  22         0.00001660
  23        -0.00286861
  24         0.00615052
  25        -0.00001870
  26         0.00323300
  27        -0.02346118
  28         0.00007135
  29        -0.01233230
  30         0.10694341
  31        -0.00032523
  32         0.05621447
  33        -0.17189305
  34         0.00052276
  35        -0.09035505
  36         0.59026171
  37        -0.00179508
  38         0.31026924
  39        -1.19934445
  40         0.00364741
  41        -0.63043169
  42         0.00000000
  43         0.00000000
  44        -0.00000000
  45         0.00000000
  46        -0.00000000
  47        -0.00000000
  48        -0.00000000
  49         0.00000000
  50        -0.00000000
  51         0.00000000
  52         0.00000000
  53         0.00000000
  54        -0.00000000
  55        -0.00000000
  56        -0.00000000
  57        -0.00000000
  58        -0.00000000
  59         0.00000000
  60        -0.00000000
  61         0.00000000
Sym=    12a  
Ene=     0.0275
Spin= Alpha
Occup=    0.00000
   1         0.00000000
   2         0.00000000
   3         0.00000000
   4         0.00000000
   5         0.00000000
   6         0.00000000
   7         0.00000001
   8        -0.00000000
   9         0.00000002
  10        -0.00000020
  11         0.00000028
  12        -0.00000045
  13         0.00000160
  14        -0.00000190
  15         0.00006340
  16         0.00000172
  17        -0.00012061
  18         0.00014984
  19         0.00000407
  20        -0.00028503
  21         0.00286858
  22         0.00007786
  23        -0.00545678
  24        -0.00323297
  25        -0.00008775
  26         0.00614994
  27         0.01233216
  28         0.00033472
  29        -0.02345898
  30        -0.05621383
  31        -0.00152575
  32         0.10693336
  33         0.09035401
  34         0.00245238
  35        -0.17187689
  36        -0.31026569
  37        -0.00842121
  38         0.59020623
  39         0.63042447
  40         0.01711094
  41        -1.19923172
  42         0.00000000
  43        -0.00000000
  44        -0.00000000
  45        -0.00000000
  46         0.00000000
  47        -0.00000000
  48         0.00000000
  49         0.00000000
  50         0.00000000
  51        -0.00000000
  52         0.00000000
  53        -0.00000000
  54        -0.00000000
  55         0.00000000
  56         0.00000000
  57        -0.00000001
  58         0.00000000
  59         0.00000000
  60         0.00000000
  61        -0.00000000
Sym=    13a  
Ene=     0.0386
Spin= Alpha
Occup=    0.00000
   1         0.00000064
   2         0.00000160
   3         0.00003498
   4         0.00000553
   5         0.00071241
   6        -0.00012573
   7         0.01046568
   8        -0.00786698
   9         0.03431360
  10        -0.17732761
  11         0.28120193
  12        -0.64878515
  13         1.83599977
  14        -1.93568226
  15         0.00000000
  16        -0.00000000
  17         0.00000000
  18         0.00000000
  19        -0.00000000
  20         0.00000000
  21         0.00000000
  22        -0.00000000
  23         0.00000002
  24         0.00000001
  25         0.00000000
  26        -0.00000000
  27         0.00000001
  28        -0.00000000
  29         0.00000004
  30        -0.00000000
  31         0.00000003
  32        -0.00000032
  33         0.00000001
  34        -0.00000002
  35         0.00000024
  36        -0.00000004
  37         0.00000014
  38        -0.00000161
  39         0.00000005
  40        -0.00000017
  41         0.00000196
  42        -0.00000000
  43         0.00000000
  44         0.00000000
  45        -0.00000000
  46        -0.00000000
  47         0.00000000
  48        -0.00000000
  49        -0.00000000
  50         0.00000000
  51         0.00000000
  52        -0.00000000
  53         0.00000000
  54         0.00000000
  55        -0.00000000
  56        -0.00000000
  57         0.00000000
  58        -0.00000000
  59        -0.00000000
  60         0.00000000
  61         0.00000000
Sym=    14a  
Ene=     0.1352
Spin= Alpha
Occup=    0.00000
   1        -0.00000000
   2        -0.00000000
   3        -0.00000000
   4        -0.00000000
   5         0.00000000
   6        -0.00000000
   7         0.00000000
   8        -0.00000000
   9         0.00000001
  10        -0.00000001
  11         0.00000004
  12        -0.00000015
  13         0.00000020
  14        -0.00000010
  15         0.00000004
  16        -0.00000580
  17        -0.00000014
  18         0.00004021
  19        -0.00598435
  20        -0.00014413
  21         0.00000485
  22        -0.00072244
  23        -0.00001740
  24         0.00039380
  25        -0.05860515
  26        -0.00141143
  27        -0.00113200
  28         0.16846280
  29         0.00405722
  30         0.00227252
  31        -0.33819313
  32        -0.00814496
  33        -0.01078759
  34         1.60539568
  35         0.03866398
  36         0.01723973
  37        -2.56559439
  38        -0.06178918
  39        -0.00681123
  40         1.01363868
  41         0.02441224
  42         0.00000000
  43        -0.00000000
  44         0.00000000
  45         0.00000000
  46         0.00000000
  47        -0.00000000
  48         0.00000000
  49        -0.00000001
  50        -0.00000000
  51        -0.00000000
  52         0.00000000
  53        -0.00000000
  54         0.00000001
  55         0.00000000
  56        -0.00000000
  57        -0.00000000
  58         0.00000000
  59        -0.00000005
  60        -0.00000000
  61        -0.00000000
Sym=    15a  
Ene=     0.1352
Spin= Alpha
Occup=    0.00000
   1         0.00000000
   2         0.00000000
   3         0.00000000
   4         0.00000000
   5        -0.00000000
   6         0.00000001
   7         0.00000000
   8         0.00000005
   9        -0.00000013
  10         0.00000011
  11        -0.00000046
  12         0.00000176
  13        -0.00000236
  14         0.00000117
  15        -0.00000425
  16         0.00000007
  17        -0.00000395
  18        -0.00438830
  19         0.00006856
  20        -0.00407100
  21        -0.00052976
  22         0.00000828
  23        -0.00049145
  24        -0.04297484
  25         0.00067139
  26        -0.03986756
  27         0.12353288
  28        -0.00192993
  29         0.11460088
  30        -0.24799523
  31         0.00387438
  32        -0.23006402
  33         1.17722816
  34        -0.01839162
  35         1.09210907
  36        -1.88133676
  37         0.02939177
  38        -1.74530733
  39         0.74329583
  40        -0.01161237
  41         0.68955207
  42         0.00000000
  43         0.00000000
  44        -0.00000000
  45         0.00000000
  46        -0.00000000
  47        -0.00000000
  48        -0.00000000
  49         0.00000000
  50        -0.00000000
  51         0.00000000
  52         0.00000001
  53         0.00000001
  54        -0.00000000
  55        -0.00000000
  56        -0.00000000
  57        -0.00000004
  58        -0.00000004
  59         0.00000000
  60        -0.00000000
  61         0.00000000
Sym=    16a  
Ene=     0.1352
Spin= Alpha
Occup=    0.00000
   1         0.00000000
   2         0.00000000
   3         0.00000000
   4         0.00000000
   5         0.00000000
   6         0.00000001
   7         0.00000000
   8         0.00000005
   9        -0.00000012
  10         0.00000008
  11        -0.00000043
  12         0.00000173
  13        -0.00000235
  14         0.00000117
  15         0.00000395
  16         0.00000013
  17        -0.00000425
  18         0.00407138
  19         0.00013300
  20        -0.00438646
  21         0.00049150
  22         0.00001606
  23        -0.00052954
  24         0.03987127
  25         0.00130248
  26        -0.04295691
  27        -0.11461154
  28        -0.00374404
  29         0.12348132
  30         0.23008542
  31         0.00751625
  32        -0.24789172
  33        -1.09221065
  34        -0.03567946
  35         1.17673680
  36         1.74546966
  37         0.05701960
  38        -1.88055151
  39        -0.68961621
  40        -0.02252783
  41         0.74298559
  42         0.00000000
  43        -0.00000000
  44        -0.00000000
  45        -0.00000000
  46         0.00000000
  47        -0.00000000
  48         0.00000000
  49         0.00000000
  50         0.00000000
  51        -0.00000000
  52         0.00000001
  53        -0.00000001
  54        -0.00000000
  55         0.00000000
  56         0.00000000
  57        -0.00000005
  58         0.00000004
  59         0.00000000
  60         0.00000000
  61        -0.00000000
Sym=    17a  
Ene=     0.1841
Spin= Alpha
Occup=    0.00000
   1        -0.00000000
   2        -0.00000000
   3        -0.00000000
   4         0.00000000
   5        -0.00000000
   6         0.00000000
   7        -0.00000000
   8         0.00000000
   9        -0.00000000
  10         0.00000000
  11        -0.00000000
  12         0.00000001
  13        -0.00000002
  14         0.00000001
  15         0.00000000
  16        -0.00000000
  17        -0.00000000
  18         0.00000000
  19        -0.00000000
  20        -0.00000000
  21         0.00000000
  22        -0.00000000
  23        -0.00000000
  24         0.00000000
  25        -0.00000000
  26        -0.00000000
  27        -0.00000000
  28         0.00000000
  29         0.00000001
  30         0.00000000
  31        -0.00000001
  32        -0.00000002
  33        -0.00000001
  34         0.00000003
  35         0.00000008
  36         0.00000001
  37        -0.00000004
  38        -0.00000010
  39        -0.00000000
  40         0.00000001
  41         0.00000003
  42        -0.00655396
  43         0.00076799
  44        -0.00218605
  45        -0.00756791
  46        -0.00349738
  47         0.04147680
  48        -0.00486021
  49         0.01383448
  50         0.04789359
  51         0.02213322
  52        -0.12692963
  53         0.01487350
  54        -0.04233705
  55        -0.14656667
  56        -0.06773332
  57         0.67112649
  58        -0.07864201
  59         0.22385249
  60         0.77495518
  61         0.35813247
Sym=    18a  
Ene=     0.1841
Spin= Alpha
Occup=    0.00000
   1        -0.00000000
   2        -0.00000000
   3        -0.00000000
   4         0.00000000
   5        -0.00000000
   6         0.00000000
   7        -0.00000000
   8         0.00000000
   9        -0.00000000
  10         0.00000000
  11        -0.00000000
  12         0.00000001
  13        -0.00000001
  14         0.00000000
  15         0.00000000
  16         0.00000000
  17        -0.00000000
  18         0.00000000
  19         0.00000000
  20        -0.00000000
  21         0.00000000
  22         0.00000000
  23        -0.00000000
  24         0.00000000
  25         0.00000000
  26        -0.00000000
  27        -0.00000000
  28        -0.00000000
  29         0.00000000
  30         0.00000000
  31         0.00000000
  32        -0.00000001
  33        -0.00000001
  34        -0.00000001
  35         0.00000002
  36         0.00000001
  37         0.00000002
  38        -0.00000003
  39        -0.00000000
  40        -0.00000001
  41         0.00000001
  42        -0.00154950
  43         0.00130981
  44         0.00167117
  45        -0.00358444
  46         0.00990304
  47         0.00980605
  48        -0.00828917
  49        -0.01057600
  50         0.02268416
  51        -0.06267155
  52        -0.03000903
  53         0.02536698
  54         0.03236527
  55        -0.06941933
  56         0.19179101
  57         0.15866945
  58        -0.13412514
  59        -0.17112781
  60         0.36704708
  61        -1.01407387
Sym=    19a  
Ene=     0.1841
Spin= Alpha
Occup=    0.00000
   1        -0.00000000
   2        -0.00000000
   3         0.00000000
   4        -0.00000000
   5         0.00000000
   6        -0.00000000
   7         0.00000000
   8        -0.00000000
   9         0.00000000
  10        -0.00000000
  11         0.00000000
  12        -0.00000000
  13         0.00000000
  14        -0.00000000
  15         0.00000000
  16        -0.00000000
  17         0.00000000
  18         0.00000000
  19        -0.00000000
  20         0.00000000
  21         0.00000000
  22        -0.00000000
  23         0.00000000
  24         0.00000000
  25        -0.00000001
  26         0.00000000
  27        -0.00000000
  28         0.00000001
  29        -0.00000001
  30         0.00000001
  31        -0.00000003
  32         0.00000002
  33        -0.00000002
  34         0.00000009
  35        -0.00000007
  36         0.00000002
  37        -0.00000012
  38         0.00000008
  39        -0.00000001
  40         0.00000004
  41        -0.00000003
  42         0.00515867
  43         0.00195557
  44        -0.00898674
  45        -0.00225097
  46         0.00125030
  47        -0.03264673
  48        -0.01237585
  49         0.05687272
  50         0.01424531
  51        -0.00791257
  52         0.09990737
  53         0.03787329
  54        -0.17404510
  55        -0.04359429
  56         0.02421450
  57        -0.52824926
  58        -0.20025084
  59         0.92024435
  60         0.23050002
  61        -0.12803149
Sym=    20a  
Ene=     0.1841
Spin= Alpha
Occup=    0.00000
   1         0.00000000
   2        -0.00000000
   3        -0.00000000
   4         0.00000000
   5        -0.00000000
   6         0.00000000
   7        -0.00000000
   8         0.00000000
   9        -0.00000000
  10         0.00000000
  11        -0.00000000
  12         0.00000000
  13        -0.00000000
  14         0.00000000
  15         0.00000000
  16         0.00000000
  17         0.00000000
  18         0.00000000
  19         0.00000000
  20         0.00000000
  21         0.00000000
  22         0.00000000
  23         0.00000000
  24         0.00000001
  25         0.00000000
  26         0.00000000
  27        -0.00000001
  28        -0.00000000
  29        -0.00000000
  30         0.00000003
  31         0.00000001
  32         0.00000001
  33        -0.00000009
  34        -0.00000005
  35        -0.00000005
  36         0.00000011
  37         0.00000006
  38         0.00000006
  39        -0.00000004
  40        -0.00000002
  41        -0.00000002
  42         0.00385614
  43         0.00842585
  44         0.00441739
  45        -0.00272410
  46        -0.00224252
  47        -0.02440365
  48        -0.05332312
  49        -0.02795554
  50         0.01723953
  51         0.01419181
  52         0.07468143
  53         0.16318243
  54         0.08555111
  55        -0.05275739
  56        -0.04343059
  57        -0.39486985
  58        -0.86280914
  59        -0.45234208
  60         0.27894892
  61         0.22963447
Sym=    21a  
Ene=     0.1841
Spin= Alpha
Occup=    0.00000
   1         0.00000000
   2         0.00000000
   3         0.00000000
   4        -0.00000000
   5         0.00000000
   6        -0.00000000
   7         0.00000000
   8        -0.00000000
   9         0.00000000
  10        -0.00000000
  11         0.00000000
  12        -0.00000000
  13         0.00000000
  14        -0.00000000
  15         0.00000000
  16        -0.00000000
  17        -0.00000000
  18         0.00000000
  19        -0.00000000
  20        -0.00000000
  21         0.00000000
  22        -0.00000000
  23        -0.00000000
  24         0.00000000
  25        -0.00000000
  26        -0.00000000
  27        -0.00000001
  28         0.00000000
  29         0.00000001
  30         0.00000002
  31        -0.00000001
  32        -0.00000002
  33        -0.00000007
  34         0.00000003
  35         0.00000006
  36         0.00000008
  37        -0.00000004
  38        -0.00000008
  39        -0.00000003
  40         0.00000001
  41         0.00000003
  42        -0.00556694
  43         0.00637990
  44        -0.00315932
  45         0.00593455
  46         0.00096630
  47         0.03523044
  48        -0.04037531
  49         0.01999380
  50        -0.03755685
  51        -0.00611523
  52        -0.10781418
  53         0.12355880
  54        -0.06118615
  55         0.11493360
  56         0.01871416
  57         0.57005564
  58        -0.65330355
  59         0.32351502
  60        -0.60769878
  61        -0.09894905
Sym=    22a  
Ene=     0.2543
Spin= Alpha
Occup=    0.00000
   1         0.00000079
   2         0.00002272
   3        -0.00000453
   4         0.00069124
   5        -0.00059543
   6         0.01161309
   7        -0.00772353
   8         0.11572807
   9        -0.28725186
  10         0.46440142
  11        -1.77519068
  12         4.45798875
  13        -4.43816622
  14         1.40478395
  15         0.00000000
  16        -0.00000000
  17         0.00000000
  18         0.00000000
  19        -0.00000000
  20         0.00000002
  21         0.00000000
  22        -0.00000000
  23         0.00000003
  24         0.00000001
  25        -0.00000002
  26         0.00000019
  27        -0.00000001
  28         0.00000002
  29        -0.00000024
  30         0.00000003
  31        -0.00000008
  32         0.00000093
  33        -0.00000012
  34         0.00000027
  35        -0.00000322
  36         0.00000010
  37        -0.00000022
  38         0.00000266
  39        -0.00000003
  40         0.00000007
  41        -0.00000081
  42        -0.00000000
  43         0.00000000
  44         0.00000000
  45        -0.00000000
  46        -0.00000000
  47        -0.00000000
  48         0.00000000
  49        -0.00000000
  50        -0.00000000
  51         0.00000000
  52         0.00000000
  53        -0.00000000
  54         0.00000000
  55         0.00000000
  56        -0.00000000
  57        -0.00000000
  58         0.00000000
  59         0.00000000
  60        -0.00000000
  61        -0.00000000
Sym=    23a  
Ene=     0.5115
Spin= Alpha
Occup=    0.00000
   1        -0.00000000
   2         0.00000000
   3        -0.00000000
   4         0.00000000
   5        -0.00000000
   6         0.00000000
   7        -0.00000000
   8         0.00000001
   9        -0.00000003
  10         0.00000011
  11        -0.00000029
  12         0.00000040
  13        -0.00000027
  14         0.00000006
  15         0.00000734
  16        -0.00195682
  17        -0.00002389
  18         0.00000421
  19        -0.00112361
  20        -0.00001372
  21         0.00033686
  22        -0.08983990
  23        -0.00109679
  24        -0.00051120
  25         0.13633670
  26         0.00166444
  27         0.00211851
  28        -0.56500873
  29        -0.00689781
  30        -0.00956398
  31         2.55072596
  32         0.03114008
  33         0.01329320
  34        -3.54531480
  35        -0.04328234
  36        -0.00714331
  37         1.90512976
  38         0.02325843
  39         0.00189721
  40        -0.50598881
  41        -0.00617727
  42        -0.00000000
  43        -0.00000000
  44        -0.00000000
  45        -0.00000000
  46        -0.00000000
  47         0.00000000
  48         0.00000000
  49         0.00000000
  50         0.00000000
  51         0.00000000
  52        -0.00000000
  53        -0.00000000
  54        -0.00000006
  55        -0.00000000
  56        -0.00000000
  57         0.00000000
  58         0.00000000
  59         0.00000004
  60         0.00000000
  61         0.00000000
Sym=    24a  
Ene=     0.5115
Spin= Alpha
Occup=    0.00000
   1         0.00000000
   2        -0.00000000
   3         0.00000000
   4        -0.00000000
   5         0.00000000
   6        -0.00000000
   7         0.00000003
   8        -0.00000005
   9         0.00000014
  10        -0.00000066
  11         0.00000174
  12        -0.00000248
  13         0.00000174
  14        -0.00000040
  15        -0.00176080
  16         0.00000382
  17        -0.00085400
  18        -0.00101106
  19         0.00000220
  20        -0.00049037
  21        -0.08084054
  22         0.00017556
  23        -0.03920843
  24         0.12267971
  25        -0.00026642
  26         0.05950082
  27        -0.50841119
  28         0.00110409
  29        -0.24658424
  30         2.29521696
  31        -0.00498438
  32         1.11320196
  33        -3.19017670
  34         0.00692791
  35        -1.54726591
  36         1.71429081
  37        -0.00372282
  38         0.83144728
  39        -0.45530338
  40         0.00098875
  41        -0.22082645
  42        -0.00000000
  43        -0.00000000
  44        -0.00000000
  45        -0.00000000
  46         0.00000000
  47         0.00000000
  48         0.00000000
  49         0.00000000
  50         0.00000000
  51        -0.00000000
  52        -0.00000003
  53        -0.00000006
  54         0.00000000
  55        -0.00000000
  56         0.00000000
  57         0.00000002
  58         0.00000004
  59        -0.00000000
  60         0.00000000
  61        -0.00000000
Sym=    25a  
Ene=     0.5115
Spin= Alpha
Occup=    0.00000
   1         0.00000000
   2        -0.00000000
   3         0.00000000
   4        -0.00000000
   5         0.00000000
   6        -0.00000001
   7         0.00000006
   8        -0.00000013
   9         0.00000035
  10        -0.00000147
  11         0.00000360
  12        -0.00000494
  13         0.00000340
  14        -0.00000078
  15         0.00085398
  16         0.00002470
  17        -0.00176064
  18         0.00049036
  19         0.00001418
  20        -0.00101097
  21         0.03920738
  22         0.00113385
  23        -0.08083329
  24        -0.05949922
  25        -0.00172067
  26         0.12266870
  27         0.24657761
  28         0.00713084
  29        -0.50836560
  30        -1.11317204
  31        -0.03219208
  32         2.29501112
  33         1.54722432
  34         0.04474454
  35        -3.18989059
  36        -0.83142493
  37        -0.02404417
  38         1.71413707
  39         0.22082052
  40         0.00638596
  41        -0.45526255
  42        -0.00000000
  43         0.00000000
  44         0.00000000
  45         0.00000000
  46        -0.00000000
  47         0.00000000
  48        -0.00000000
  49        -0.00000000
  50        -0.00000000
  51         0.00000000
  52        -0.00000007
  53         0.00000002
  54         0.00000000
  55         0.00000000
  56        -0.00000000
  57         0.00000005
  58        -0.00000002
  59        -0.00000000
  60        -0.00000000
  61         0.00000000
Sym=    26a  
Ene=     0.6030
Spin= Alpha
Occup=    0.00000
   1         0.00000000
   2         0.00000000
   3         0.00000000
   4         0.00000000
   5         0.00000000
   6         0.00000000
   7         0.00000000
   8        -0.00000000
   9         0.00000000
  10        -0.00000000
  11         0.00000000
  12        -0.00000000
  13         0.00000000
  14        -0.00000000
  15         0.00000000
  16         0.00000000
  17        -0.00000000
  18         0.00000000
  19         0.00000000
  20        -0.00000000
  21         0.00000000
  22         0.00000000
  23        -0.00000000
  24        -0.00000000
  25        -0.00000000
  26         0.00000000
  27         0.00000000
  28         0.00000000
  29        -0.00000002
  30        -0.00000001
  31        -0.00000001
  32         0.00000008
  33         0.00000001
  34         0.00000002
  35        -0.00000010
  36        -0.00000000
  37        -0.00000001
  38         0.00000005
  39         0.00000000
  40         0.00000000
  41        -0.00000001
  42         0.02404516
  43        -0.00163987
  44        -0.00890415
  45         0.03680397
  46         0.01880300
  47        -0.07894180
  48         0.00538381
  49         0.02923291
  50        -0.12082978
  51        -0.06173144
  52         0.68895627
  53        -0.04698660
  54        -0.25512711
  55         1.05452918
  56         0.53875468
  57        -0.35885511
  58         0.02447380
  59         0.13288749
  60        -0.54927026
  61        -0.28061994
Sym=    27a  
Ene=     0.6030
Spin= Alpha
Occup=    0.00000
   1        -0.00000000
   2        -0.00000000
   3        -0.00000000
   4        -0.00000000
   5        -0.00000000
   6        -0.00000000
   7        -0.00000000
   8         0.00000000
   9        -0.00000000
  10         0.00000000
  11        -0.00000000
  12         0.00000000
  13        -0.00000000
  14         0.00000000
  15         0.00000000
  16        -0.00000000
  17         0.00000000
  18        -0.00000000
  19        -0.00000000
  20         0.00000000
  21         0.00000000
  22        -0.00000000
  23         0.00000000
  24        -0.00000000
  25         0.00000000
  26        -0.00000000
  27         0.00000000
  28        -0.00000001
  29         0.00000001
  30        -0.00000000
  31         0.00000003
  32        -0.00000003
  33         0.00000000
  34        -0.00000004
  35         0.00000004
  36        -0.00000000
  37         0.00000002
  38        -0.00000002
  39         0.00000000
  40        -0.00000000
  41         0.00000000
  42        -0.00821054
  43         0.00325587
  44         0.00870768
  45        -0.01514609
  46         0.04455319
  47         0.02695572
  48        -0.01068922
  49        -0.02858786
  50         0.04972557
  51        -0.14627096
  52        -0.23525325
  53         0.09328906
  54         0.24949751
  55        -0.43397466
  56         1.27656444
  57         0.12253584
  58        -0.04859126
  59        -0.12995521
  60         0.22604341
  61        -0.66492127
Sym=    28a  
Ene=     0.6030
Spin= Alpha
Occup=    0.00000
   1         0.00000000
   2        -0.00000000
   3        -0.00000000
   4        -0.00000000
   5        -0.00000000
   6        -0.00000000
   7        -0.00000000
   8         0.00000000
   9        -0.00000000
  10         0.00000000
  11        -0.00000000
  12         0.00000000
  13        -0.00000000
  14         0.00000000
  15         0.00000000
  16         0.00000000
  17        -0.00000000
  18         0.00000000
  19         0.00000000
  20        -0.00000000
  21         0.00000000
  22         0.00000001
  23        -0.00000000
  24        -0.00000000
  25        -0.00000000
  26         0.00000000
  27         0.00000000
  28         0.00000003
  29        -0.00000002
  30        -0.00000001
  31        -0.00000011
  32         0.00000009
  33         0.00000001
  34         0.00000012
  35        -0.00000010
  36        -0.00000001
  37        -0.00000007
  38         0.00000005
  39         0.00000000
  40         0.00000002
  41        -0.00000001
  42         0.02406552
  43        -0.00013882
  44        -0.03387756
  45        -0.02520172
  46         0.00249882
  47        -0.07900864
  48         0.00045577
  49         0.11122217
  50         0.08273884
  51        -0.00820378
  52         0.68953960
  53        -0.00397765
  54        -0.97067979
  55        -0.72209457
  56         0.07159760
  57        -0.35915895
  58         0.00207183
  59         0.50559581
  60         0.37611579
  61        -0.03729288
Sym=    29a  
Ene=     0.6030
Spin= Alpha
Occup=    0.00000
   1         0.00000000
   2        -0.00000000
   3        -0.00000000
   4        -0.00000000
   5        -0.00000000
   6        -0.00000000
   7        -0.00000000
   8         0.00000000
   9        -0.00000000
  10         0.00000000
  11        -0.00000000
  12         0.00000000
  13        -0.00000000
  14         0.00000000
  15         0.00000000
  16        -0.00000000
  17         0.00000000
  18         0.00000000
  19         0.00000000
  20         0.00000000
  21         0.00000001
  22        -0.00000000
  23         0.00000000
  24        -0.00000001
  25         0.00000000
  26        -0.00000000
  27         0.00000004
  28        -0.00000000
  29         0.00000001
  30        -0.00000015
  31         0.00000000
  32        -0.00000002
  33         0.00000017
  34        -0.00000000
  35         0.00000002
  36        -0.00000009
  37         0.00000000
  38        -0.00000001
  39         0.00000002
  40        -0.00000000
  41         0.00000000
  42        -0.00194602
  43        -0.04852189
  44         0.00048564
  45        -0.00200478
  46         0.00241082
  47         0.00638890
  48         0.15930046
  49        -0.00159437
  50         0.00658182
  51        -0.00791487
  52        -0.05575845
  53        -1.39027802
  54         0.01391472
  55        -0.05744214
  56         0.06907622
  57         0.02904278
  58         0.72415100
  59        -0.00724773
  60         0.02991976
  61        -0.03597958
Sym=    30a  
Ene=     0.6030
Spin= Alpha
Occup=    0.00000
   1         0.00000000
   2        -0.00000000
   3         0.00000000
   4         0.00000000
   5         0.00000000
   6         0.00000000
   7         0.00000000
   8        -0.00000000
   9         0.00000000
  10        -0.00000000
  11         0.00000000
  12        -0.00000000
  13         0.00000000
  14        -0.00000000
  15         0.00000000
  16        -0.00000000
  17        -0.00000000
  18         0.00000000
  19        -0.00000000
  20        -0.00000000
  21         0.00000000
  22        -0.00000000
  23        -0.00000001
  24        -0.00000000
  25         0.00000000
  26         0.00000001
  27         0.00000000
  28        -0.00000003
  29        -0.00000003
  30        -0.00000001
  31         0.00000010
  32         0.00000011
  33         0.00000001
  34        -0.00000011
  35        -0.00000013
  36        -0.00000001
  37         0.00000006
  38         0.00000007
  39         0.00000000
  40        -0.00000002
  41        -0.00000002
  42         0.03375958
  43        -0.00073817
  44         0.03263734
  45        -0.01204766
  46        -0.00419908
  47        -0.11083483
  48         0.00242345
  49        -0.10715046
  50         0.03955323
  51         0.01378586
  52         0.96729935
  53        -0.02115036
  54         0.93514437
  55        -0.34519668
  56        -0.12031464
  57        -0.50383505
  58         0.01101654
  59        -0.48708656
  60         0.17980182
  61         0.06266802
Sym=    31a  
Ene=     1.0925
Spin= Alpha
Occup=    0.00000
   1        -0.00000794
   2         0.00000534
   3        -0.00049044
   4         0.00076261
   5        -0.01062559
   6         0.01607008
   7        -0.15709990
   8         0.25834949
   9        -0.95149001
  10         3.85059341
  11        -6.94430104
  12         6.04145452
  13        -2.73176962
  14         0.67609499
  15         0.00000000
  16         0.00000000
  17        -0.00000001
  18         0.00000000
  19        -0.00000000
  20         0.00000000
  21         0.00000001
  22         0.00000002
  23        -0.00000022
  24         0.00000000
  25        -0.00000002
  26         0.00000027
  27         0.00000007
  28         0.00000021
  29        -0.00000257
  30        -0.00000005
  31        -0.00000038
  32         0.00000460
  33         0.00000007
  34         0.00000027
  35        -0.00000318
  36        -0.00000003
  37        -0.00000012
  38         0.00000147
  39         0.00000001
  40         0.00000003
  41        -0.00000037
  42         0.00000000
  43        -0.00000000
  44        -0.00000000
  45         0.00000000
  46         0.00000000
  47         0.00000000
  48        -0.00000000
  49         0.00000000
  50         0.00000000
  51        -0.00000000
  52         0.00000000
  53        -0.00000000
  54        -0.00000000
  55        -0.00000000
  56         0.00000000
  57         0.00000000
  58        -0.00000000
  59         0.00000000
  60         0.00000000
  61        -0.00000000
Sym=    32a  
Ene=     1.6734
Spin= Alpha
Occup=    0.00000
   1        -0.00000000
   2         0.00000000
   3        -0.00000000
   4         0.00000000
   5        -0.00000000
   6         0.00000002
   7        -0.00000006
   8         0.00000019
   9        -0.00000066
  10         0.00000169
  11        -0.00000236
  12         0.00000167
  13        -0.00000063
  14         0.00000018
  15         0.00117579
  16        -0.00000039
  17         0.00039152
  18        -0.06355898
  19         0.00002126
  20        -0.02116401
  21         0.05571341
  22        -0.00001864
  23         0.01855157
  24        -0.90343518
  25         0.00030221
  26        -0.30082783
  27         3.03677278
  28        -0.00101585
  29         1.01119126
  30        -3.39332174
  31         0.00113512
  32        -1.12991571
  33         2.03541837
  34        -0.00068088
  35         0.67775807
  36        -0.90296823
  37         0.00030206
  38        -0.30067234
  39         0.23003179
  40        -0.00007695
  41         0.07659649
  42         0.00000000
  43         0.00000001
  44        -0.00000000
  45         0.00000000
  46        -0.00000000
  47        -0.00000005
  48        -0.00000013
  49         0.00000000
  50        -0.00000000
  51         0.00000001
  52         0.00000004
  53         0.00000011
  54        -0.00000000
  55         0.00000000
  56        -0.00000001
  57        -0.00000001
  58        -0.00000004
  59         0.00000000
  60        -0.00000000
  61         0.00000000
Sym=    33a  
Ene=     1.6734
Spin= Alpha
Occup=    0.00000
   1        -0.00000000
   2         0.00000000
   3        -0.00000000
   4         0.00000000
   5        -0.00000001
   6         0.00000004
   7        -0.00000019
   8         0.00000043
   9        -0.00000160
  10         0.00000478
  11        -0.00000723
  12         0.00000537
  13        -0.00000206
  14         0.00000056
  15        -0.00039150
  16         0.00001163
  17         0.00117574
  18         0.02116289
  19        -0.00062893
  20        -0.06355624
  21        -0.01855059
  22         0.00055129
  23         0.05571101
  24         0.30081189
  25        -0.00893966
  26        -0.90339630
  27        -1.01113770
  28         0.03004942
  29         3.03664211
  30         1.12985586
  31        -0.03357754
  32        -3.39317572
  33        -0.67772217
  34         0.02014084
  35         2.03533079
  36         0.30065641
  37        -0.00893504
  38        -0.90292938
  39        -0.07659243
  40         0.00227621
  41         0.23002190
  42         0.00000001
  43        -0.00000000
  44        -0.00000000
  45        -0.00000000
  46         0.00000000
  47        -0.00000015
  48         0.00000004
  49         0.00000001
  50         0.00000000
  51        -0.00000000
  52         0.00000012
  53        -0.00000003
  54        -0.00000001
  55        -0.00000000
  56         0.00000000
  57        -0.00000004
  58         0.00000001
  59         0.00000000
  60         0.00000000
  61        -0.00000000
Sym=    34a  
Ene=     1.6734
Spin= Alpha
Occup=    0.00000
   1         0.00000000
   2        -0.00000000
   3         0.00000000
   4        -0.00000000
   5         0.00000000
   6        -0.00000000
   7         0.00000002
   8        -0.00000005
   9         0.00000016
  10        -0.00000046
  11         0.00000070
  12        -0.00000052
  13         0.00000020
  14        -0.00000005
  15         0.00000405
  16         0.00123920
  17        -0.00001091
  18        -0.00021887
  19        -0.06698704
  20         0.00059000
  21         0.00019185
  22         0.05871832
  23        -0.00051717
  24        -0.00311101
  25        -0.95216209
  26         0.00838632
  27         0.01045723
  28         3.20056149
  29        -0.02818946
  30        -0.01168502
  31        -3.57634099
  32         0.03149920
  33         0.00700903
  34         2.14519894
  35        -0.01889419
  36        -0.00310940
  37        -0.95166997
  38         0.00838199
  39         0.00079212
  40         0.24243862
  41        -0.00213532
  42         0.00000000
  43         0.00000000
  44         0.00000001
  45         0.00000000
  46         0.00000000
  47        -0.00000000
  48        -0.00000000
  49        -0.00000014
  50        -0.00000001
  51        -0.00000000
  52         0.00000000
  53         0.00000000
  54         0.00000011
  55         0.00000001
  56         0.00000000
  57        -0.00000000
  58        -0.00000000
  59        -0.00000004
  60        -0.00000000
  61        -0.00000000
Sym=    35a  
Ene=     1.7499
Spin= Alpha
Occup=    0.00000
   1         0.00000000
   2        -0.00000000
   3         0.00000000
   4        -0.00000000
   5         0.00000000
   6        -0.00000000
   7         0.00000000
   8        -0.00000000
   9         0.00000000
  10        -0.00000000
  11         0.00000000
  12        -0.00000000
  13         0.00000000
  14        -0.00000000
  15         0.00000000
  16         0.00000000
  17         0.00000000
  18        -0.00000000
  19        -0.00000000
  20        -0.00000001
  21         0.00000000
  22         0.00000000
  23         0.00000000
  24        -0.00000001
  25        -0.00000002
  26        -0.00000007
  27         0.00000003
  28         0.00000008
  29         0.00000024
  30        -0.00000003
  31        -0.00000008
  32        -0.00000025
  33         0.00000002
  34         0.00000005
  35         0.00000016
  36        -0.00000001
  37        -0.00000002
  38        -0.00000007
  39         0.00000000
  40         0.00000001
  41         0.00000002
  42        -0.08066125
  43        -0.00998444
  44        -0.02158919
  45        -0.07873612
  46         0.01343547
  47         1.01823327
  48         0.12603930
  49         0.27253275
  50         0.99393128
  51        -0.16960372
  52        -0.75641819
  53        -0.09363122
  54        -0.20245727
  55        -0.73836490
  56         0.12599406
  57         0.26238165
  58         0.03247822
  59         0.07022712
  60         0.25611944
  61        -0.04370404
Sym=    36a  
Ene=     1.7499
Spin= Alpha
Occup=    0.00000
   1        -0.00000000
   2        -0.00000000
   3        -0.00000000
   4        -0.00000000
   5         0.00000000
   6        -0.00000000
   7         0.00000000
   8        -0.00000000
   9         0.00000000
  10        -0.00000000
  11         0.00000000
  12        -0.00000000
  13         0.00000000
  14        -0.00000000
  15        -0.00000000
  16        -0.00000000
  17         0.00000000
  18         0.00000000
  19         0.00000001
  20        -0.00000000
  21        -0.00000000
  22        -0.00000000
  23         0.00000000
  24         0.00000002
  25         0.00000008
  26        -0.00000003
  27        -0.00000008
  28        -0.00000025
  29         0.00000010
  30         0.00000008
  31         0.00000026
  32        -0.00000011
  33        -0.00000005
  34        -0.00000016
  35         0.00000007
  36         0.00000002
  37         0.00000007
  38        -0.00000003
  39        -0.00000001
  40        -0.00000002
  41         0.00000001
  42        -0.02985850
  43         0.02451155
  44         0.09695751
  45        -0.00763792
  46        -0.05000463
  47         0.37692107
  48        -0.30942342
  49        -1.22395043
  50         0.09641783
  51         0.63123720
  52        -0.28000456
  53         0.22986236
  54         0.90923995
  55        -0.07162622
  56        -0.46892919
  57         0.09712624
  58        -0.07973323
  59        -0.31539152
  60         0.02484526
  61         0.16265925
Sym=    37a  
Ene=     1.7499
Spin= Alpha
Occup=    0.00000
   1        -0.00000000
   2         0.00000000
   3        -0.00000000
   4         0.00000000
   5        -0.00000000
   6         0.00000000
   7        -0.00000000
   8         0.00000000
   9        -0.00000000
  10         0.00000000
  11        -0.00000000
  12         0.00000000
  13        -0.00000000
  14         0.00000000
  15         0.00000000
  16        -0.00000000
  17         0.00000000
  18        -0.00000000
  19         0.00000000
  20        -0.00000000
  21         0.00000000
  22        -0.00000000
  23         0.00000000
  24        -0.00000003
  25         0.00000005
  26        -0.00000001
  27         0.00000008
  28        -0.00000016
  29         0.00000002
  30        -0.00000009
  31         0.00000017
  32        -0.00000002
  33         0.00000005
  34        -0.00000010
  35         0.00000001
  36        -0.00000002
  37         0.00000004
  38        -0.00000001
  39         0.00000001
  40        -0.00000001
  41         0.00000000
  42        -0.00203351
  43        -0.02457107
  44         0.05661527
  45         0.00639265
  46         0.09796877
  47         0.02567012
  48         0.31017472
  49        -0.71468714
  50        -0.08069810
  51        -1.23671605
  52        -0.01906964
  53        -0.23042048
  54         0.53092191
  55         0.05994846
  56         0.91872319
  57         0.00661476
  58         0.07992683
  59        -0.18416290
  60        -0.02079455
  61        -0.31868101
Sym=    38a  
Ene=     1.7499
Spin= Alpha
Occup=    0.00000
   1         0.00000000
   2        -0.00000000
   3         0.00000000
   4        -0.00000000
   5         0.00000000
   6        -0.00000000
   7         0.00000000
   8        -0.00000000
   9         0.00000000
  10        -0.00000000
  11         0.00000000
  12        -0.00000000
  13         0.00000000
  14        -0.00000000
  15         0.00000000
  16        -0.00000000
  17        -0.00000000
  18        -0.00000000
  19         0.00000000
  20         0.00000000
  21         0.00000000
  22        -0.00000000
  23        -0.00000000
  24        -0.00000002
  25         0.00000001
  26         0.00000007
  27         0.00000005
  28        -0.00000004
  29        -0.00000023
  30        -0.00000005
  31         0.00000004
  32         0.00000024
  33         0.00000003
  34        -0.00000002
  35        -0.00000015
  36        -0.00000001
  37         0.00000001
  38         0.00000007
  39         0.00000000
  40        -0.00000000
  41        -0.00000002
  42         0.07716164
  43        -0.01546284
  44         0.01752510
  45        -0.08308430
  46        -0.00698273
  47        -0.97405577
  48         0.19519628
  49        -0.22122937
  50         1.04882089
  51         0.08814696
  52         0.72359991
  53        -0.14500609
  54         0.16434536
  55        -0.77914091
  56        -0.06548201
  57        -0.25099785
  58         0.05029881
  59        -0.05700710
  60         0.27026357
  61         0.02271399
Sym=    39a  
Ene=     1.7499
Spin= Alpha
Occup=    0.00000
   1        -0.00000000
   2         0.00000000
   3        -0.00000000
   4         0.00000000
   5        -0.00000000
   6         0.00000000
   7        -0.00000000
   8         0.00000000
   9        -0.00000000
  10         0.00000000
  11        -0.00000000
  12         0.00000000
  13        -0.00000000
  14         0.00000000
  15         0.00000000
  16        -0.00000000
  17         0.00000000
  18        -0.00000001
  19         0.00000000
  20        -0.00000000
  21         0.00000001
  22        -0.00000000
  23         0.00000000
  24        -0.00000008
  25         0.00000001
  26        -0.00000001
  27         0.00000028
  28        -0.00000002
  29         0.00000004
  30        -0.00000029
  31         0.00000002
  32        -0.00000004
  33         0.00000018
  34        -0.00000001
  35         0.00000003
  36        -0.00000008
  37         0.00000001
  38        -0.00000001
  39         0.00000002
  40        -0.00000000
  41         0.00000000
  42        -0.00980234
  43        -0.10912637
  44         0.00852268
  45         0.01582169
  46        -0.03353050
  47         0.12374055
  48         1.37756492
  49        -0.10758675
  50        -0.19972627
  51         0.42327472
  52        -0.09192354
  53        -1.02335604
  54         0.07992331
  55         0.14837129
  56        -0.31443944
  57         0.03188587
  58         0.35497540
  59        -0.02772330
  60        -0.05146611
  61         0.10907080
Sym=    40a  
Ene=     4.2722
Spin= Alpha
Occup=    0.00000
   1        -0.00000121
   2         0.00028206
   3        -0.00072314
   4         0.00943579
   5        -0.02196060
   6         0.16720589
   7        -0.33628912
   8         2.14491749
   9        -6.15506685
  10         8.44423467
  11        -6.24937509
  12         3.17227493
  13        -1.40662199
  14         0.32713640
  15        -0.00000000
  16         0.00000000
  17        -0.00000001
  18         0.00000001
  19        -0.00000000
  20         0.00000005
  21        -0.00000010
  22         0.00000004
  23        -0.00000059
  24         0.00000041
  25        -0.00000016
  26         0.00000219
  27        -0.00000043
  28         0.00000019
  29        -0.00000255
  30         0.00000032
  31        -0.00000009
  32         0.00000133
  33        -0.00000015
  34         0.00000008
  35        -0.00000103
  36         0.00000007
  37        -0.00000003
  38         0.00000038
  39        -0.00000002
  40         0.00000001
  41        -0.00000010
  42        -0.00000000
  43         0.00000000
  44         0.00000000
  45        -0.00000000
  46        -0.00000000
  47         0.00000000
  48        -0.00000000
  49        -0.00000000
  50         0.00000000
  51         0.00000000
  52        -0.00000000
  53         0.00000000
  54         0.00000000
  55        -0.00000000
  56        -0.00000000
  57        -0.00000000
  58        -0.00000000
  59        -0.00000000
  60        -0.00000000
  61         0.00000000
Sym=    41a  
Ene=     5.1856
Spin= Alpha
Occup=    0.00000
   1         0.00000000
   2         0.00000000
   3        -0.00000000
   4         0.00000000
   5        -0.00000000
   6         0.00000000
   7        -0.00000000
   8         0.00000000
   9        -0.00000000
  10         0.00000000
  11        -0.00000000
  12         0.00000000
  13        -0.00000000
  14         0.00000000
  15         0.00000000
  16        -0.00000000
  17        -0.00000000
  18         0.00000000
  19        -0.00000000
  20         0.00000000
  21         0.00000000
  22        -0.00000000
  23        -0.00000000
  24         0.00000000
  25        -0.00000000
  26         0.00000001
  27        -0.00000000
  28         0.00000000
  29        -0.00000001
  30         0.00000000
  31        -0.00000000
  32         0.00000000
  33        -0.00000000
  34         0.00000000
  35        -0.00000000
  36         0.00000000
  37        -0.00000000
  38         0.00000000
  39        -0.00000000
  40         0.00000000
  41        -0.00000000
  42         0.16469100
  43         1.34060949
  44        -0.08559555
  45         0.28988066
  46        -0.07240382
  47        -0.13499193
  48        -1.09885464
  49         0.07015993
  50        -0.23760589
  51         0.05934709
  52         0.06432550
  53         0.52361922
  54        -0.03343216
  55         0.11322244
  56        -0.02827970
  57        -0.02110841
  58        -0.17182562
  59         0.01097076
  60        -0.03715394
  61         0.00927998
Sym=    42a  
Ene=     5.1856
Spin= Alpha
Occup=    0.00000
   1         0.00000000
   2         0.00000000
   3        -0.00000000
   4         0.00000000
   5        -0.00000000
   6         0.00000000
   7        -0.00000000
   8         0.00000000
   9        -0.00000000
  10         0.00000000
  11        -0.00000000
  12         0.00000000
  13        -0.00000000
  14         0.00000000
  15         0.00000000
  16        -0.00000000
  17         0.00000000
  18        -0.00000000
  19        -0.00000000
  20         0.00000000
  21         0.00000000
  22        -0.00000000
  23         0.00000000
  24        -0.00000001
  25         0.00000000
  26         0.00000000
  27         0.00000001
  28         0.00000000
  29        -0.00000000
  30        -0.00000000
  31        -0.00000000
  32         0.00000000
  33         0.00000000
  34        -0.00000000
  35        -0.00000000
  36        -0.00000000
  37        -0.00000000
  38         0.00000000
  39         0.00000000
  40         0.00000000
  41        -0.00000000
  42         1.30865208
  43        -0.07456865
  44        -0.11190764
  45        -0.43590772
  46        -0.01694174
  47        -1.07266018
  48         0.06112154
  49         0.09172710
  50         0.35729959
  51         0.01388660
  52         0.51113720
  53        -0.02912525
  54        -0.04370922
  55        -0.17025813
  56        -0.00661716
  57        -0.16772965
  58         0.00955745
  59         0.01434318
  60         0.05587020
  61         0.00217142
Sym=    43a  
Ene=     5.1856
Spin= Alpha
Occup=    0.00000
   1         0.00000000
   2         0.00000000
   3        -0.00000000
   4         0.00000000
   5        -0.00000000
   6         0.00000000
   7        -0.00000000
   8         0.00000000
   9        -0.00000000
  10         0.00000000
  11        -0.00000000
  12         0.00000000
  13        -0.00000000
  14         0.00000000
  15        -0.00000000
  16         0.00000000
  17         0.00000000
  18         0.00000000
  19         0.00000000
  20         0.00000000
  21        -0.00000000
  22         0.00000000
  23         0.00000000
  24         0.00000000
  25         0.00000000
  26        -0.00000000
  27        -0.00000000
  28        -0.00000000
  29         0.00000000
  30         0.00000000
  31         0.00000000
  32        -0.00000000
  33        -0.00000000
  34        -0.00000000
  35         0.00000000
  36         0.00000000
  37         0.00000000
  38        -0.00000000
  39        -0.00000000
  40        -0.00000000
  41         0.00000000
  42         0.20133472
  43         0.01985683
  44         1.32010627
  45         0.25155726
  46         0.27214895
  47        -0.16502762
  48        -0.01627601
  49        -1.08204881
  50        -0.20619343
  51        -0.22307177
  52         0.07863791
  53         0.00775574
  54         0.51561101
  55         0.09825398
  56         0.10629674
  57        -0.02580503
  58        -0.00254505
  59        -0.16919773
  60        -0.03224204
  61        -0.03488127
Sym=    44a  
Ene=     5.1856
Spin= Alpha
Occup=    0.00000
   1         0.00000000
   2         0.00000000
   3        -0.00000000
   4         0.00000000
   5        -0.00000000
   6         0.00000000
   7        -0.00000000
   8         0.00000000
   9        -0.00000001
  10         0.00000001
  11        -0.00000001
  12         0.00000000
  13        -0.00000000
  14         0.00000000
  15        -0.00000000
  16        -0.00000000
  17         0.00000000
  18         0.00000000
  19         0.00000000
  20         0.00000000
  21        -0.00000000
  22        -0.00000000
  23         0.00000000
  24         0.00000000
  25         0.00000000
  26        -0.00000000
  27        -0.00000000
  28        -0.00000000
  29         0.00000000
  30         0.00000000
  31         0.00000000
  32         0.00000000
  33        -0.00000000
  34        -0.00000000
  35         0.00000000
  36         0.00000000
  37         0.00000000
  38         0.00000000
  39        -0.00000000
  40        -0.00000000
  41        -0.00000000
  42         0.31125155
  43        -0.25181676
  44        -0.39037429
  45         1.05007732
  46         0.71106467
  47        -0.25512292
  48         0.20640613
  49         0.31997729
  50        -0.86071474
  51        -0.58283692
  52         0.12156955
  53        -0.09835533
  54        -0.15247354
  55         0.41014231
  56         0.27772974
  57        -0.03989304
  58         0.03227530
  59         0.05003419
  60        -0.13458818
  61        -0.09113700
Sym=    45a  
Ene=     5.1856
Spin= Alpha
Occup=    0.00000
   1        -0.00000000
   2        -0.00000000
   3         0.00000000
   4        -0.00000000
   5         0.00000000
   6        -0.00000000
   7         0.00000000
   8        -0.00000000
   9         0.00000001
  10        -0.00000001
  11         0.00000001
  12        -0.00000000
  13         0.00000000
  14        -0.00000000
  15         0.00000000
  16        -0.00000000
  17        -0.00000000
  18        -0.00000000
  19         0.00000000
  20        -0.00000000
  21         0.00000000
  22        -0.00000000
  23        -0.00000000
  24        -0.00000000
  25         0.00000000
  26         0.00000000
  27         0.00000000
  28        -0.00000000
  29        -0.00000000
  30        -0.00000000
  31         0.00000000
  32         0.00000000
  33         0.00000000
  34        -0.00000000
  35        -0.00000000
  36        -0.00000000
  37         0.00000000
  38         0.00000000
  39         0.00000000
  40        -0.00000000
  41        -0.00000000
  42        -0.20940403
  43         0.23314453
  44        -0.07767928
  45        -0.69351774
  46         1.15574620
  47         0.17164177
  48        -0.19110110
  49         0.06367121
  50         0.56845427
  51        -0.94732813
  52        -0.08178964
  53         0.09106228
  54        -0.03034020
  55        -0.27087621
  56         0.45141477
  57         0.02683927
  58        -0.02988208
  59         0.00995614
  60         0.08888802
  61        -0.14813174
Sym=    46a  
Ene=     5.6386
Spin= Alpha
Occup=    0.00000
   1         0.00000000
   2        -0.00000000
   3         0.00000000
   4        -0.00000000
   5         0.00000001
   6        -0.00000003
   7         0.00000009
   8        -0.00000072
   9         0.00000179
  10        -0.00000183
  11         0.00000066
  12        -0.00000012
  13         0.00000017
  14        -0.00000003
  15         0.02055391
  16         0.00022957
  17        -0.01456793
  18        -0.06257840
  19        -0.00069893
  20         0.04435350
  21         1.20846287
  22         0.01349724
  23        -0.85651854
  24        -2.78733460
  25        -0.03113155
  26         1.97557064
  27         2.54153216
  28         0.02838620
  29        -1.80135399
  30        -1.56980229
  31        -0.01753302
  32         1.11262398
  33         0.90164571
  34         0.01007042
  35        -0.63905668
  36        -0.37776064
  37        -0.00421918
  38         0.26774425
  39         0.09849657
  40         0.00110010
  41        -0.06981111
  42        -0.00000000
  43        -0.00000000
  44         0.00000000
  45         0.00000000
  46        -0.00000000
  47         0.00000000
  48        -0.00000000
  49        -0.00000000
  50        -0.00000000
  51         0.00000000
  52         0.00000000
  53        -0.00000000
  54         0.00000000
  55         0.00000000
  56        -0.00000000
  57         0.00000000
  58        -0.00000000
  59        -0.00000000
  60        -0.00000000
  61         0.00000000
Sym=    47a  
Ene=     5.6386
Spin= Alpha
Occup=    0.00000
   1        -0.00000000
   2         0.00000000
   3        -0.00000000
   4         0.00000001
   5        -0.00000001
   6         0.00000009
   7        -0.00000022
   8         0.00000151
   9        -0.00000390
  10         0.00000450
  11        -0.00000244
  12         0.00000100
  13        -0.00000062
  14         0.00000011
  15         0.01456950
  16        -0.00018073
  17         0.02055328
  18        -0.04435829
  19         0.00055026
  20        -0.06257649
  21         0.85661106
  22        -0.01062621
  23         1.20842595
  24        -1.97578403
  25         0.02450949
  26        -2.78724944
  27         1.80154857
  28        -0.02234811
  29         2.54145451
  30        -1.11274416
  31         0.01380353
  32        -1.56975433
  33         0.63912571
  34        -0.00792832
  35         0.90161816
  36        -0.26777317
  37         0.00332171
  38        -0.37774910
  39         0.06981865
  40        -0.00086610
  41         0.09849356
  42         0.00000000
  43         0.00000000
  44        -0.00000000
  45         0.00000000
  46        -0.00000000
  47        -0.00000000
  48        -0.00000000
  49         0.00000000
  50        -0.00000000
  51         0.00000000
  52        -0.00000000
  53        -0.00000000
  54        -0.00000000
  55         0.00000000
  56         0.00000000
  57        -0.00000000
  58        -0.00000000
  59         0.00000000
  60        -0.00000000
  61         0.00000000
Sym=    48a  
Ene=     5.6386
Spin= Alpha
Occup=    0.00000
   1        -0.00000000
   2        -0.00000000
   3         0.00000000
   4        -0.00000000
   5         0.00000000
   6        -0.00000000
   7         0.00000000
   8        -0.00000008
   9         0.00000023
  10        -0.00000026
  11         0.00000012
  12        -0.00000004
  13         0.00000003
  14        -0.00000001
  15        -0.00008277
  16         0.02519236
  17         0.00028020
  18         0.00025201
  19        -0.07670065
  20        -0.00085310
  21        -0.00486665
  22         1.48117987
  23         0.01647445
  24         0.01122499
  25        -3.41635961
  26        -0.03799853
  27        -0.01023511
  28         3.11508627
  29         0.03464761
  30         0.00632181
  31        -1.92406357
  32        -0.02140044
  33        -0.00363105
  34         1.10512239
  35         0.01229175
  36         0.00152129
  37        -0.46301083
  38        -0.00514985
  39        -0.00039666
  40         0.12072452
  41         0.00134276
  42         0.00000000
  43         0.00000000
  44         0.00000000
  45         0.00000000
  46         0.00000000
  47        -0.00000000
  48        -0.00000000
  49        -0.00000000
  50        -0.00000000
  51        -0.00000000
  52         0.00000000
  53        -0.00000000
  54        -0.00000000
  55         0.00000000
  56         0.00000000
  57        -0.00000000
  58         0.00000000
  59        -0.00000000
  60        -0.00000000
  61        -0.00000000
Sym=    49a  
Ene=    16.6390
Spin= Alpha
Occup=    0.00000
   1         0.00010311
   2        -0.00044971
   3         0.00727988
   4        -0.02285674
   5         0.17317644
   6        -0.48425786
   7         3.20222651
   8        -7.03684828
   9         7.58524483
  10        -5.10157570
  11         2.95437695
  12        -1.56567954
  13         0.60046163
  14        -0.15176291
  15         0.00000000
  16        -0.00000000
  17         0.00000001
  18        -0.00000001
  19         0.00000000
  20        -0.00000026
  21         0.00000002
  22        -0.00000000
  23         0.00000070
  24        -0.00000002
  25         0.00000001
  26        -0.00000061
  27         0.00000001
  28         0.00000001
  29         0.00000029
  30        -0.00000001
  31         0.00000002
  32        -0.00000043
  33         0.00000000
  34         0.00000001
  35         0.00000003
  36        -0.00000000
  37         0.00000000
  38        -0.00000005
  39         0.00000000
  40         0.00000000
  41         0.00000001
  42         0.00000000
  43        -0.00000000
  44        -0.00000000
  45         0.00000000
  46         0.00000000
  47        -0.00000000
  48         0.00000000
  49         0.00000000
  50        -0.00000000
  51        -0.00000000
  52         0.00000000
  53        -0.00000000
  54        -0.00000000
  55         0.00000000
  56         0.00000000
  57        -0.00000000
  58         0.00000000
  59         0.00000000
  60        -0.00000000
  61        -0.00000000
Sym=    50a  
Ene=    21.8830
Spin= Alpha
Occup=    0.00000
   1         0.00000000
   2        -0.00000000
   3         0.00000000
   4        -0.00000001
   5         0.00000004
   6        -0.00000019
   7         0.00000077
   8        -0.00000126
   9         0.00000102
  10        -0.00000075
  11         0.00000083
  12        -0.00000055
  13         0.00000013
  14        -0.00000005
  15         0.03581595
  16         0.00052166
  17        -0.05184129
  18        -0.95683729
  19        -0.01393647
  20         1.38496059
  21         1.56739889
  22         0.02282939
  23        -2.26870934
  24        -1.19976347
  25        -0.01747473
  26         1.73658066
  27         0.77460848
  28         0.01128229
  29        -1.12119608
  30        -0.48859895
  31        -0.00711651
  32         0.70721564
  33         0.24942650
  34         0.00363293
  35        -0.36102885
  36        -0.11356828
  37        -0.00165414
  38         0.16438280
  39         0.02982846
  40         0.00043446
  41        -0.04317478
  42         0.00000000
  43        -0.00000000
  44        -0.00000000
  45        -0.00000000
  46         0.00000000
  47        -0.00000000
  48         0.00000000
  49         0.00000000
  50         0.00000000
  51        -0.00000000
  52        -0.00000000
  53         0.00000000
  54        -0.00000000
  55         0.00000000
  56        -0.00000000
  57        -0.00000000
  58         0.00000000
  59         0.00000000
  60        -0.00000000
  61        -0.00000000
Sym=    51a  
Ene=    21.8830
Spin= Alpha
Occup=    0.00000
   1         0.00000000
   2        -0.00000000
   3         0.00000000
   4        -0.00000000
   5         0.00000003
   6        -0.00000012
   7         0.00000053
   8        -0.00000085
   9         0.00000058
  10        -0.00000030
  11         0.00000038
  12        -0.00000025
  13         0.00000004
  14        -0.00000002
  15        -0.05184369
  16         0.00017631
  17        -0.03581584
  18         1.38502480
  19        -0.00471018
  20         0.95683425
  21        -2.26881451
  22         0.00771576
  23        -1.56739391
  24         1.73666117
  25        -0.00590602
  26         1.19975966
  27        -1.12124806
  28         0.00381313
  29        -0.77460602
  30         0.70724842
  31        -0.00240520
  32         0.48859740
  33        -0.36104559
  34         0.00122784
  35        -0.24942570
  36         0.16439043
  37        -0.00055906
  38         0.11356792
  39        -0.04317678
  40         0.00014684
  41        -0.02982836
  42         0.00000000
  43         0.00000000
  44        -0.00000000
  45         0.00000000
  46        -0.00000000
  47        -0.00000000
  48        -0.00000000
  49         0.00000000
  50        -0.00000000
  51         0.00000000
  52        -0.00000000
  53        -0.00000000
  54        -0.00000000
  55        -0.00000000
  56         0.00000000
  57        -0.00000000
  58        -0.00000000
  59         0.00000000
  60         0.00000000
  61         0.00000000
Sym=    52a  
Ene=    21.8830
Spin= Alpha
Occup=    0.00000
   1        -0.00000000
   2         0.00000000
   3        -0.00000000
   4         0.00000000
   5        -0.00000000
   6         0.00000001
   7        -0.00000002
   8         0.00000000
   9         0.00000002
  10        -0.00000001
  11        -0.00000003
  12         0.00000002
  13        -0.00000000
  14         0.00000000
  15         0.00015146
  16        -0.06301008
  17        -0.00052941
  18        -0.00404626
  19         1.68333935
  20         0.01414351
  21         0.00662819
  22        -2.75748464
  23        -0.02316854
  24        -0.00507354
  25         2.11071307
  26         0.01773433
  27         0.00327565
  28        -1.36274880
  29        -0.01144989
  30        -0.00206618
  31         0.85957960
  32         0.00722224
  33         0.00105477
  34        -0.43880964
  35        -0.00368690
  36        -0.00048026
  37         0.19979778
  38         0.00167871
  39         0.00012614
  40        -0.05247645
  41        -0.00044091
  42         0.00000000
  43        -0.00000000
  44         0.00000000
  45         0.00000000
  46         0.00000000
  47        -0.00000000
  48        -0.00000000
  49        -0.00000000
  50        -0.00000000
  51        -0.00000000
  52         0.00000000
  53        -0.00000000
  54        -0.00000000
  55        -0.00000000
  56        -0.00000000
  57        -0.00000000
  58         0.00000000
  59        -0.00000000
  60        -0.00000000
  61         0.00000000
