[MOLDEN FORMAT]
[N_ATOMS]
                    1
[ATOMS] (AU)
BE          1      4           0.00000000      0.00000000      0.00000000
[5D]
[CHARGE] (MULLIKEN)
   0.0000000000000000     
[GTO] (AU)
   1
   s   1
  0.226738562E+05  0.100000000E+01
   s   1
  0.337906274E+04  0.100000000E+01
   s   1
  0.761871101E+03  0.100000000E+01
   s   1
  0.212163961E+03  0.100000000E+01
   s   1
  0.673579149E+02  0.100000000E+01
   s   1
  0.234189214E+02  0.100000000E+01
   s   1
  0.873881575E+01  0.100000000E+01
   s   1
  0.347502718E+01  0.100000000E+01
   s   1
  0.145504829E+01  0.100000000E+01
   s   1
  0.609832230E+00  0.100000000E+01
   s   1
  0.258201372E+00  0.100000000E+01
   s   1
  0.104384352E+00  0.100000000E+01
   s   1
  0.425118540E-01  0.100000000E+01
   s   1
  0.148786980E-01  0.100000000E+01
   p   1
  0.337101840E+02  0.100000000E+01
   p   1
  0.805764950E+01  0.100000000E+01
   p   1
  0.283647140E+01  0.100000000E+01
   p   1
  0.109996570E+01  0.100000000E+01
   p   1
  0.443396400E+00  0.100000000E+01
   p   1
  0.182226400E+00  0.100000000E+01
   p   1
  0.757241000E-01  0.100000000E+01
   p   1
  0.316854000E-01  0.100000000E+01
   p   1
  0.110899000E-01  0.100000000E+01
   d   1
  0.140000000E+01  0.100000000E+01
   d   1
  0.490000000E+00  0.100000000E+01
   d   1
  0.171500000E+00  0.100000000E+01
   d   1
  0.600250000E-01  0.100000000E+01
 
[MO]
Sym=     1a  
Ene=    -4.7332
Spin= Alpha
Occup=    2.00000
   1         0.00008428
   2         0.00045906
   3         0.00227992
   4         0.00962435
   5         0.03486334
   6         0.10588775
   7         0.24544728
   8         0.38602057
   9         0.31107898
  10         0.06457088
  11        -0.00227517
  12        -0.00051010
  13        -0.00088291
  14         0.00012517
  15         0.00000000
  16         0.00000000
  17         0.00000000
  18        -0.00000000
  19        -0.00000000
  20        -0.00000000
  21         0.00000000
  22         0.00000000
  23         0.00000000
  24        -0.00000000
  25        -0.00000000
  26        -0.00000000
  27        -0.00000000
  28        -0.00000000
  29        -0.00000000
  30         0.00000000
  31         0.00000000
  32         0.00000000
  33         0.00000000
  34         0.00000000
  35        -0.00000000
  36        -0.00000000
  37        -0.00000000
  38        -0.00000000
  39         0.00000000
  40         0.00000000
  41         0.00000000
  42         0.00000000
  43         0.00000000
  44        -0.00000000
  45         0.00000000
  46         0.00000000
  47        -0.00000000
  48        -0.00000000
  49         0.00000000
  50        -0.00000000
  51        -0.00000000
  52         0.00000000
  53         0.00000000
  54        -0.00000000
  55        -0.00000000
  56        -0.00000000
  57        -0.00000000
  58         0.00000000
  59        -0.00000000
  60         0.00000000
  61        -0.00000000
Sym=     2a  
Ene=    -0.3093
Spin= Alpha
Occup=    2.00000
   1        -0.00001586
   2        -0.00008626
   3        -0.00042952
   4        -0.00181967
   5        -0.00666915
   6        -0.02090049
   7        -0.05192268
   8        -0.09834578
   9        -0.13559140
  10        -0.06470845
  11         0.31137911
  12         0.62724815
  13         0.21207555
  14        -0.00407113
  15        -0.00000000
  16        -0.00000000
  17        -0.00000000
  18         0.00000000
  19         0.00000000
  20         0.00000000
  21        -0.00000000
  22        -0.00000000
  23        -0.00000000
  24         0.00000000
  25         0.00000000
  26         0.00000000
  27         0.00000000
  28         0.00000000
  29         0.00000000
  30        -0.00000000
  31        -0.00000000
  32        -0.00000000
  33        -0.00000000
  34        -0.00000000
  35        -0.00000000
  36         0.00000000
  37         0.00000000
  38         0.00000000
  39        -0.00000000
  40        -0.00000000
  41        -0.00000000
  42        -0.00000000
  43        -0.00000000
  44        -0.00000000
  45        -0.00000000
  46        -0.00000000
  47        -0.00000000
  48         0.00000000
  49         0.00000000
  50         0.00000000
  51         0.00000000
  52         0.00000000
  53        -0.00000000
  54         0.00000000
  55        -0.00000000
  56        -0.00000000
  57        -0.00000000
  58         0.00000000
  59         0.00000000
  60         0.00000000
  61         0.00000000
Sym=     3a  
Ene=     3.0243
Spin= Alpha
Occup=    0.00000
   1        -0.00000000
   2        -0.00000000
   3        -0.00000000
   4        -0.00000000
   5        -0.00000000
   6        -0.00000000
   7        -0.00000000
   8        -0.00000000
   9        -0.00000000
  10        -0.00000000
  11         0.00000000
  12         0.00000000
  13         0.00000000
  14        -0.00000000
  15        -0.00000000
  16         0.00005414
  17        -0.00000000
  18         0.00000000
  19        -0.00048381
  20         0.00000000
  21        -0.00000000
  22         0.00233991
  23        -0.00000000
  24         0.00000000
  25        -0.00853733
  26         0.00000000
  27         0.00000000
  28         0.02698798
  29         0.00000000
  30        -0.00000000
  31        -0.07842331
  32        -0.00000000
  33        -0.00000000
  34         0.21105341
  35        -0.00000000
  36         0.00000000
  37        -0.48537986
  38         0.00000000
  39        -0.00000000
  40         1.25839548
  41        -0.00000000
  42        -0.00000000
  43        -0.00000000
  44        -0.00000000
  45        -0.00000000
  46        -0.00000000
  47        -0.00000000
  48         0.00000000
  49        -0.00000000
  50         0.00000000
  51         0.00000000
  52        -0.00000000
  53        -0.00000000
  54         0.00000000
  55        -0.00000000
  56        -0.00000000
  57        -0.00000000
  58         0.00000000
  59         0.00000000
  60         0.00000000
  61         0.00000000
Sym=     4a  
Ene=     3.0243
Spin= Alpha
Occup=    0.00000
   1        -0.00000000
   2        -0.00000000
   3        -0.00000000
   4        -0.00000000
   5        -0.00000000
   6        -0.00000000
   7        -0.00000000
   8        -0.00000000
   9        -0.00000000
  10        -0.00000000
  11         0.00000000
  12         0.00000000
  13         0.00000000
  14        -0.00000000
  15         0.00005414
  16        -0.00000000
  17        -0.00000000
  18        -0.00048381
  19         0.00000000
  20         0.00000000
  21         0.00233991
  22        -0.00000000
  23        -0.00000000
  24        -0.00853733
  25         0.00000000
  26         0.00000000
  27         0.02698798
  28         0.00000000
  29         0.00000000
  30        -0.07842331
  31        -0.00000000
  32        -0.00000000
  33         0.21105341
  34        -0.00000000
  35        -0.00000000
  36        -0.48537986
  37         0.00000000
  38         0.00000000
  39         1.25839548
  40        -0.00000000
  41        -0.00000000
  42        -0.00000000
  43        -0.00000000
  44        -0.00000000
  45        -0.00000000
  46        -0.00000000
  47        -0.00000000
  48         0.00000000
  49        -0.00000000
  50         0.00000000
  51         0.00000000
  52        -0.00000000
  53        -0.00000000
  54         0.00000000
  55        -0.00000000
  56        -0.00000000
  57        -0.00000000
  58         0.00000000
  59         0.00000000
  60         0.00000000
  61         0.00000000
Sym=     5a  
Ene=     3.0243
Spin= Alpha
Occup=    0.00000
   1         0.00000000
   2        -0.00000000
   3         0.00000000
   4        -0.00000000
   5         0.00000000
   6        -0.00000000
   7         0.00000000
   8        -0.00000000
   9         0.00000000
  10        -0.00000000
  11         0.00000000
  12        -0.00000000
  13         0.00000000
  14        -0.00000000
  15        -0.00000000
  16        -0.00000000
  17         0.00005414
  18         0.00000000
  19         0.00000000
  20        -0.00048381
  21        -0.00000000
  22        -0.00000000
  23         0.00233991
  24         0.00000000
  25         0.00000000
  26        -0.00853733
  27         0.00000000
  28         0.00000000
  29         0.02698798
  30        -0.00000000
  31        -0.00000000
  32        -0.07842331
  33        -0.00000000
  34        -0.00000000
  35         0.21105341
  36         0.00000000
  37         0.00000000
  38        -0.48537986
  39        -0.00000000
  40        -0.00000000
  41         1.25839548
  42         0.00000000
  43         0.00000000
  44         0.00000000
  45         0.00000000
  46         0.00000000
  47        -0.00000000
  48        -0.00000000
  49        -0.00000000
  50        -0.00000000
  51        -0.00000000
  52         0.00000000
  53         0.00000000
  54         0.00000000
  55         0.00000000
  56         0.00000000
  57        -0.00000000
  58        -0.00000000
  59         0.00000000
  60        -0.00000000
  61        -0.00000000
Sym=     6a  
Ene=     3.0386
Spin= Alpha
Occup=    0.00000
   1        -0.00000018
   2         0.00000215
   3        -0.00001533
   4         0.00008348
   5        -0.00036025
   6         0.00154245
   7        -0.00461332
   8         0.01981912
   9        -0.03781094
  10         0.14588080
  11        -0.27931484
  12         0.66840405
  13        -1.83192218
  14         1.93448332
  15        -0.00000000
  16        -0.00000000
  17         0.00000000
  18         0.00000000
  19         0.00000000
  20        -0.00000000
  21        -0.00000000
  22        -0.00000000
  23         0.00000000
  24         0.00000000
  25        -0.00000000
  26        -0.00000000
  27         0.00000000
  28         0.00000000
  29         0.00000000
  30        -0.00000000
  31        -0.00000000
  32        -0.00000000
  33        -0.00000000
  34        -0.00000000
  35         0.00000000
  36         0.00000000
  37         0.00000000
  38        -0.00000000
  39        -0.00000000
  40        -0.00000000
  41         0.00000000
  42         0.00000000
  43         0.00000000
  44        -0.00000000
  45         0.00000000
  46        -0.00000000
  47        -0.00000000
  48         0.00000000
  49         0.00000000
  50         0.00000000
  51         0.00000000
  52         0.00000000
  53        -0.00000000
  54        -0.00000000
  55        -0.00000000
  56        -0.00000000
  57         0.00000000
  58         0.00000000
  59         0.00000000
  60         0.00000000
  61         0.00000000
Sym=     7a  
Ene=     3.0954
Spin= Alpha
Occup=    0.00000
   1         0.00000000
   2         0.00000000
   3         0.00000000
   4         0.00000000
   5         0.00000000
   6         0.00000000
   7         0.00000000
   8         0.00000000
   9         0.00000000
  10         0.00000000
  11        -0.00000000
  12        -0.00000000
  13        -0.00000000
  14         0.00000000
  15         0.00000000
  16        -0.00017520
  17         0.00000000
  18        -0.00000000
  19         0.00156768
  20        -0.00000000
  21         0.00000000
  22        -0.00760347
  23         0.00000000
  24        -0.00000000
  25         0.02792513
  26        -0.00000000
  27        -0.00000000
  28        -0.08961760
  29        -0.00000000
  30         0.00000000
  31         0.26936035
  32         0.00000000
  33         0.00000000
  34        -0.77967746
  35         0.00000000
  36        -0.00000000
  37         2.05621769
  38        -0.00000000
  39         0.00000000
  40        -1.01234483
  41         0.00000000
  42         0.00000000
  43         0.00000000
  44         0.00000000
  45         0.00000000
  46         0.00000000
  47         0.00000000
  48        -0.00000000
  49         0.00000000
  50        -0.00000000
  51        -0.00000000
  52         0.00000000
  53         0.00000000
  54        -0.00000000
  55         0.00000000
  56         0.00000000
  57         0.00000000
  58        -0.00000000
  59        -0.00000000
  60        -0.00000000
  61        -0.00000000
Sym=     8a  
Ene=     3.0954
Spin= Alpha
Occup=    0.00000
   1         0.00000000
   2         0.00000000
   3         0.00000000
   4         0.00000000
   5         0.00000000
   6         0.00000000
   7         0.00000000
   8         0.00000000
   9         0.00000000
  10         0.00000000
  11        -0.00000000
  12        -0.00000000
  13        -0.00000000
  14         0.00000000
  15        -0.00017520
  16         0.00000000
  17         0.00000000
  18         0.00156768
  19        -0.00000000
  20        -0.00000000
  21        -0.00760347
  22         0.00000000
  23         0.00000000
  24         0.02792513
  25        -0.00000000
  26        -0.00000000
  27        -0.08961760
  28        -0.00000000
  29        -0.00000000
  30         0.26936035
  31         0.00000000
  32         0.00000000
  33        -0.77967746
  34         0.00000000
  35         0.00000000
  36         2.05621769
  37        -0.00000000
  38        -0.00000000
  39        -1.01234483
  40         0.00000000
  41         0.00000000
  42         0.00000000
  43         0.00000000
  44         0.00000000
  45         0.00000000
  46         0.00000000
  47         0.00000000
  48        -0.00000000
  49         0.00000000
  50        -0.00000000
  51        -0.00000000
  52         0.00000000
  53         0.00000000
  54        -0.00000000
  55         0.00000000
  56         0.00000000
  57         0.00000000
  58        -0.00000000
  59        -0.00000000
  60        -0.00000000
  61        -0.00000000
Sym=     9a  
Ene=     3.0954
Spin= Alpha
Occup=    0.00000
   1        -0.00000000
   2         0.00000000
   3        -0.00000000
   4        -0.00000000
   5         0.00000000
   6        -0.00000000
   7         0.00000000
   8        -0.00000000
   9         0.00000000
  10        -0.00000000
  11         0.00000000
  12        -0.00000000
  13         0.00000000
  14         0.00000000
  15         0.00000000
  16         0.00000000
  17        -0.00017520
  18        -0.00000000
  19        -0.00000000
  20         0.00156768
  21         0.00000000
  22         0.00000000
  23        -0.00760347
  24        -0.00000000
  25        -0.00000000
  26         0.02792513
  27        -0.00000000
  28        -0.00000000
  29        -0.08961760
  30         0.00000000
  31         0.00000000
  32         0.26936035
  33         0.00000000
  34         0.00000000
  35        -0.77967746
  36        -0.00000000
  37        -0.00000000
  38         2.05621769
  39         0.00000000
  40         0.00000000
  41        -1.01234483
  42         0.00000000
  43         0.00000000
  44        -0.00000000
  45         0.00000000
  46        -0.00000000
  47         0.00000000
  48        -0.00000000
  49         0.00000000
  50        -0.00000000
  51        -0.00000000
  52         0.00000000
  53         0.00000000
  54        -0.00000000
  55         0.00000000
  56         0.00000000
  57        -0.00000000
  58        -0.00000000
  59        -0.00000000
  60        -0.00000000
  61        -0.00000000
Sym=    10a  
Ene=     3.1944
Spin= Alpha
Occup=    0.00000
   1        -0.00000000
   2        -0.00000000
   3         0.00000000
   4         0.00000000
   5        -0.00000000
   6         0.00000000
   7        -0.00000000
   8         0.00000000
   9        -0.00000000
  10         0.00000000
  11        -0.00000000
  12         0.00000000
  13        -0.00000000
  14         0.00000000
  15         0.00000000
  16         0.00000000
  17         0.00000000
  18        -0.00000000
  19        -0.00000000
  20        -0.00000000
  21         0.00000000
  22         0.00000000
  23         0.00000000
  24        -0.00000000
  25        -0.00000000
  26        -0.00000000
  27        -0.00000000
  28        -0.00000000
  29         0.00000000
  30         0.00000000
  31         0.00000000
  32        -0.00000000
  33         0.00000000
  34         0.00000000
  35         0.00000000
  36        -0.00000000
  37        -0.00000000
  38        -0.00000000
  39         0.00000000
  40         0.00000000
  41         0.00000000
  42         0.00711564
  43         0.00490566
  44        -0.00464391
  45        -0.00800347
  46        -0.00074629
  47        -0.03638236
  48        -0.02508272
  49         0.02374440
  50         0.04092187
  51         0.00381579
  52         0.15277903
  53         0.10532888
  54        -0.09970895
  55        -0.17184162
  56        -0.01602351
  57        -0.64184341
  58        -0.44249951
  59         0.41888949
  60         0.72192768
  61         0.06731674
Sym=    11a  
Ene=     3.1944
Spin= Alpha
Occup=    0.00000
   1        -0.00000000
   2        -0.00000000
   3        -0.00000000
   4        -0.00000000
   5         0.00000000
   6         0.00000000
   7        -0.00000000
   8         0.00000000
   9        -0.00000000
  10         0.00000000
  11        -0.00000000
  12         0.00000000
  13        -0.00000000
  14         0.00000000
  15         0.00000000
  16         0.00000000
  17         0.00000000
  18        -0.00000000
  19        -0.00000000
  20        -0.00000000
  21         0.00000000
  22         0.00000000
  23         0.00000000
  24        -0.00000000
  25        -0.00000000
  26        -0.00000000
  27        -0.00000000
  28        -0.00000000
  29         0.00000000
  30         0.00000000
  31         0.00000000
  32        -0.00000000
  33         0.00000000
  34         0.00000000
  35         0.00000000
  36        -0.00000000
  37        -0.00000000
  38        -0.00000000
  39         0.00000000
  40         0.00000000
  41         0.00000000
  42         0.00407653
  43        -0.01034464
  44         0.00203418
  45        -0.00346855
  46        -0.00459105
  47        -0.02084338
  48         0.05289233
  49        -0.01040078
  50         0.01773477
  51         0.02347409
  52         0.08752680
  53        -0.22210867
  54         0.04367559
  55        -0.07447291
  56        -0.09857384
  57        -0.36771080
  58         0.93310571
  59        -0.18348651
  60         0.31286980
  61         0.41412075
Sym=    12a  
Ene=     3.1944
Spin= Alpha
Occup=    0.00000
   1        -0.00000000
   2         0.00000000
   3        -0.00000000
   4         0.00000000
   5        -0.00000000
   6         0.00000000
   7        -0.00000000
   8         0.00000000
   9        -0.00000000
  10         0.00000000
  11        -0.00000000
  12         0.00000000
  13        -0.00000000
  14         0.00000000
  15         0.00000000
  16         0.00000000
  17        -0.00000000
  18        -0.00000000
  19        -0.00000000
  20         0.00000000
  21         0.00000000
  22         0.00000000
  23        -0.00000000
  24        -0.00000000
  25        -0.00000000
  26         0.00000000
  27        -0.00000000
  28        -0.00000000
  29        -0.00000000
  30         0.00000000
  31         0.00000000
  32         0.00000000
  33         0.00000000
  34         0.00000000
  35        -0.00000000
  36        -0.00000000
  37        -0.00000000
  38         0.00000000
  39         0.00000000
  40         0.00000000
  41        -0.00000000
  42         0.00302331
  43        -0.00157105
  44        -0.00915259
  45         0.00735126
  46        -0.00338476
  47        -0.01545824
  48         0.00803283
  49         0.04679736
  50        -0.03758711
  51         0.01730635
  52         0.06491316
  53        -0.03373193
  54        -0.19651430
  55         0.15783806
  56        -0.07267386
  57        -0.27270813
  58         0.14171199
  59         0.82558063
  60        -0.66309700
  61         0.30531179
Sym=    13a  
Ene=     3.1944
Spin= Alpha
Occup=    0.00000
   1        -0.00000000
   2        -0.00000000
   3        -0.00000000
   4         0.00000000
   5        -0.00000000
   6         0.00000000
   7        -0.00000000
   8        -0.00000000
   9         0.00000000
  10        -0.00000000
  11        -0.00000000
  12         0.00000000
  13        -0.00000000
  14         0.00000000
  15         0.00000000
  16         0.00000000
  17        -0.00000000
  18        -0.00000000
  19        -0.00000000
  20         0.00000000
  21         0.00000000
  22         0.00000000
  23        -0.00000000
  24        -0.00000000
  25        -0.00000000
  26         0.00000000
  27        -0.00000000
  28        -0.00000000
  29        -0.00000000
  30         0.00000000
  31         0.00000000
  32         0.00000000
  33         0.00000000
  34         0.00000000
  35        -0.00000000
  36        -0.00000000
  37        -0.00000000
  38         0.00000000
  39         0.00000000
  40         0.00000000
  41        -0.00000000
  42         0.00010579
  43        -0.00504651
  44        -0.00427848
  45        -0.00151568
  46         0.01071425
  47        -0.00054093
  48         0.02580287
  49         0.02187593
  50         0.00774970
  51        -0.05478213
  52         0.00227150
  53        -0.10835296
  54        -0.09186272
  55        -0.03254301
  56         0.23004444
  57        -0.00954287
  58         0.45520404
  59         0.38592651
  60         0.13671716
  61        -0.96644486
Sym=    14a  
Ene=     3.1944
Spin= Alpha
Occup=    0.00000
   1         0.00000000
   2        -0.00000000
   3         0.00000000
   4        -0.00000000
   5         0.00000000
   6        -0.00000000
   7         0.00000000
   8        -0.00000000
   9         0.00000000
  10        -0.00000000
  11         0.00000000
  12        -0.00000000
  13         0.00000000
  14        -0.00000000
  15         0.00000000
  16        -0.00000000
  17        -0.00000000
  18        -0.00000000
  19         0.00000000
  20         0.00000000
  21         0.00000000
  22         0.00000000
  23        -0.00000000
  24         0.00000000
  25        -0.00000000
  26         0.00000000
  27        -0.00000000
  28         0.00000000
  29        -0.00000000
  30         0.00000000
  31        -0.00000000
  32         0.00000000
  33        -0.00000000
  34         0.00000000
  35        -0.00000000
  36         0.00000000
  37        -0.00000000
  38         0.00000000
  39        -0.00000000
  40         0.00000000
  41        -0.00000000
  42        -0.00919099
  43        -0.00136515
  44        -0.00575301
  45        -0.00533400
  46        -0.00360414
  47         0.04699365
  48         0.00698003
  49         0.02941521
  50         0.02727281
  51         0.01842801
  52        -0.19733860
  53        -0.02931098
  54        -0.12352212
  55        -0.11452562
  56        -0.07738401
  57         0.82904362
  58         0.12313902
  59         0.51893154
  60         0.48113616
  61         0.32509970
Sym=    15a  
Ene=     3.2523
Spin= Alpha
Occup=    0.00000
   1         0.00000084
   2        -0.00001027
   3         0.00007370
   4        -0.00039212
   5         0.00180108
   6        -0.00666303
   7         0.02719790
   8        -0.07093134
   9         0.27027289
  10        -0.54944859
  11         1.72776788
  12        -4.32384343
  13         4.39343354
  14        -1.39639273
  15        -0.00000000
  16        -0.00000000
  17         0.00000000
  18         0.00000000
  19         0.00000000
  20        -0.00000000
  21        -0.00000000
  22        -0.00000000
  23         0.00000000
  24         0.00000000
  25         0.00000000
  26        -0.00000000
  27         0.00000000
  28         0.00000000
  29         0.00000000
  30        -0.00000000
  31        -0.00000000
  32        -0.00000000
  33        -0.00000000
  34        -0.00000000
  35         0.00000000
  36         0.00000000
  37         0.00000000
  38        -0.00000000
  39        -0.00000000
  40        -0.00000000
  41         0.00000000
  42         0.00000000
  43         0.00000000
  44         0.00000000
  45         0.00000000
  46         0.00000000
  47        -0.00000000
  48        -0.00000000
  49        -0.00000000
  50        -0.00000000
  51        -0.00000000
  52         0.00000000
  53         0.00000000
  54         0.00000000
  55         0.00000000
  56         0.00000000
  57        -0.00000000
  58        -0.00000000
  59        -0.00000000
  60        -0.00000000
  61        -0.00000000
Sym=    16a  
Ene=     3.2725
Spin= Alpha
Occup=    0.00000
   1        -0.00000000
   2        -0.00000000
   3        -0.00000000
   4        -0.00000000
   5        -0.00000000
   6        -0.00000000
   7        -0.00000000
   8        -0.00000000
   9        -0.00000000
  10        -0.00000000
  11         0.00000000
  12         0.00000000
  13         0.00000000
  14        -0.00000000
  15        -0.00000000
  16         0.00048206
  17        -0.00000000
  18         0.00000000
  19        -0.00432606
  20         0.00000000
  21        -0.00000000
  22         0.02112083
  23        -0.00000000
  24         0.00000000
  25        -0.07873550
  26         0.00000000
  27         0.00000000
  28         0.26110420
  29         0.00000000
  30        -0.00000000
  31        -0.83986870
  32        -0.00000000
  33        -0.00000000
  34         2.70051420
  35        -0.00000000
  36         0.00000000
  37        -2.09522173
  38         0.00000000
  39        -0.00000000
  40         0.62439656
  41        -0.00000000
  42        -0.00000000
  43        -0.00000000
  44        -0.00000000
  45        -0.00000000
  46        -0.00000000
  47        -0.00000000
  48         0.00000000
  49        -0.00000000
  50         0.00000000
  51         0.00000000
  52        -0.00000000
  53        -0.00000000
  54         0.00000000
  55        -0.00000000
  56        -0.00000000
  57        -0.00000000
  58         0.00000000
  59         0.00000000
  60         0.00000000
  61         0.00000000
Sym=    17a  
Ene=     3.2725
Spin= Alpha
Occup=    0.00000
   1        -0.00000000
   2        -0.00000000
   3        -0.00000000
   4        -0.00000000
   5        -0.00000000
   6        -0.00000000
   7        -0.00000000
   8        -0.00000000
   9        -0.00000000
  10        -0.00000000
  11         0.00000000
  12         0.00000000
  13         0.00000000
  14        -0.00000000
  15         0.00048206
  16        -0.00000000
  17        -0.00000000
  18        -0.00432606
  19         0.00000000
  20         0.00000000
  21         0.02112083
  22        -0.00000000
  23        -0.00000000
  24        -0.07873550
  25         0.00000000
  26         0.00000000
  27         0.26110420
  28         0.00000000
  29         0.00000000
  30        -0.83986870
  31        -0.00000000
  32        -0.00000000
  33         2.70051420
  34        -0.00000000
  35        -0.00000000
  36        -2.09522173
  37         0.00000000
  38         0.00000000
  39         0.62439656
  40        -0.00000000
  41        -0.00000000
  42        -0.00000000
  43        -0.00000000
  44        -0.00000000
  45        -0.00000000
  46        -0.00000000
  47        -0.00000000
  48         0.00000000
  49        -0.00000000
  50         0.00000000
  51         0.00000000
  52        -0.00000000
  53        -0.00000000
  54         0.00000000
  55        -0.00000000
  56        -0.00000000
  57        -0.00000000
  58         0.00000000
  59         0.00000000
  60         0.00000000
  61         0.00000000
Sym=    18a  
Ene=     3.2725
Spin= Alpha
Occup=    0.00000
   1        -0.00000000
   2        -0.00000000
   3        -0.00000000
   4        -0.00000000
   5         0.00000000
   6        -0.00000000
   7         0.00000000
   8        -0.00000000
   9         0.00000000
  10         0.00000000
  11        -0.00000000
  12         0.00000000
  13        -0.00000000
  14         0.00000000
  15        -0.00000000
  16        -0.00000000
  17         0.00048206
  18         0.00000000
  19         0.00000000
  20        -0.00432606
  21        -0.00000000
  22        -0.00000000
  23         0.02112083
  24         0.00000000
  25         0.00000000
  26        -0.07873550
  27         0.00000000
  28         0.00000000
  29         0.26110420
  30        -0.00000000
  31        -0.00000000
  32        -0.83986870
  33        -0.00000000
  34        -0.00000000
  35         2.70051420
  36         0.00000000
  37         0.00000000
  38        -2.09522173
  39        -0.00000000
  40        -0.00000000
  41         0.62439656
  42        -0.00000000
  43         0.00000000
  44        -0.00000000
  45        -0.00000000
  46        -0.00000000
  47         0.00000000
  48        -0.00000000
  49         0.00000000
  50         0.00000000
  51         0.00000000
  52        -0.00000000
  53        -0.00000000
  54        -0.00000000
  55        -0.00000000
  56        -0.00000000
  57         0.00000000
  58         0.00000000
  59         0.00000000
  60         0.00000000
  61         0.00000000
Sym=    19a  
Ene=     3.6948
Spin= Alpha
Occup=    0.00000
   1        -0.00000000
   2        -0.00000000
   3        -0.00000000
   4         0.00000000
   5        -0.00000000
   6         0.00000000
   7        -0.00000000
   8        -0.00000000
   9         0.00000000
  10        -0.00000000
  11         0.00000000
  12        -0.00000000
  13         0.00000000
  14        -0.00000000
  15         0.00000000
  16         0.00000000
  17         0.00000000
  18        -0.00000000
  19        -0.00000000
  20        -0.00000000
  21         0.00000000
  22         0.00000000
  23         0.00000000
  24        -0.00000000
  25        -0.00000000
  26        -0.00000000
  27        -0.00000000
  28        -0.00000000
  29         0.00000000
  30         0.00000000
  31         0.00000000
  32        -0.00000000
  33         0.00000000
  34         0.00000000
  35         0.00000000
  36        -0.00000000
  37        -0.00000000
  38        -0.00000000
  39         0.00000000
  40         0.00000000
  41         0.00000000
  42        -0.02725480
  43         0.00021530
  44         0.01889535
  45         0.00645649
  46         0.03528107
  47         0.15282799
  48        -0.00120727
  49        -0.10595339
  50        -0.03620398
  51        -0.19783437
  52        -0.81834816
  53         0.00646455
  54         0.56734869
  55         0.19386146
  56         1.05934388
  57         0.38947085
  58        -0.00307663
  59        -0.27001439
  60        -0.09226316
  61        -0.50416630
Sym=    20a  
Ene=     3.6948
Spin= Alpha
Occup=    0.00000
   1        -0.00000000
   2        -0.00000000
   3         0.00000000
   4         0.00000000
   5        -0.00000000
   6         0.00000000
   7        -0.00000000
   8        -0.00000000
   9        -0.00000000
  10         0.00000000
  11        -0.00000000
  12         0.00000000
  13        -0.00000000
  14         0.00000000
  15        -0.00000000
  16        -0.00000000
  17        -0.00000000
  18         0.00000000
  19         0.00000000
  20         0.00000000
  21        -0.00000000
  22        -0.00000000
  23        -0.00000000
  24         0.00000000
  25         0.00000000
  26         0.00000000
  27         0.00000000
  28         0.00000000
  29        -0.00000000
  30        -0.00000000
  31        -0.00000000
  32         0.00000000
  33        -0.00000000
  34        -0.00000000
  35        -0.00000000
  36         0.00000000
  37         0.00000000
  38         0.00000000
  39        -0.00000000
  40        -0.00000000
  41        -0.00000000
  42         0.00863841
  43        -0.01517797
  44        -0.00323215
  45         0.04550689
  46         0.00016904
  47        -0.04843884
  48         0.08510863
  49         0.01812391
  50        -0.25517438
  51        -0.00094787
  52         0.25937551
  53        -0.45573124
  54        -0.09704810
  55         1.36638247
  56         0.00507558
  57        -0.12344282
  58         0.21689306
  59         0.04618744
  60        -0.65029308
  61        -0.00241559
Sym=    21a  
Ene=     3.6948
Spin= Alpha
Occup=    0.00000
   1         0.00000000
   2        -0.00000000
   3         0.00000000
   4        -0.00000000
   5         0.00000000
   6        -0.00000000
   7         0.00000000
   8        -0.00000000
   9         0.00000000
  10        -0.00000000
  11         0.00000000
  12        -0.00000000
  13         0.00000000
  14        -0.00000000
  15        -0.00000000
  16        -0.00000000
  17         0.00000000
  18         0.00000000
  19         0.00000000
  20        -0.00000000
  21        -0.00000000
  22        -0.00000000
  23         0.00000000
  24         0.00000000
  25         0.00000000
  26        -0.00000000
  27         0.00000000
  28         0.00000000
  29         0.00000000
  30        -0.00000000
  31        -0.00000000
  32         0.00000000
  33        -0.00000000
  34        -0.00000000
  35        -0.00000000
  36         0.00000000
  37         0.00000000
  38        -0.00000000
  39        -0.00000000
  40        -0.00000000
  41        -0.00000000
  42        -0.00641176
  43         0.04481904
  44         0.00058482
  45         0.01623883
  46        -0.00851155
  47         0.03595315
  48        -0.25131737
  49        -0.00327931
  50        -0.09105725
  51         0.04772752
  52        -0.19251834
  53         1.34572930
  54         0.01755975
  55         0.48758435
  56        -0.25556657
  57         0.09162394
  58        -0.64046375
  59        -0.00835709
  60        -0.23205269
  61         0.12163005
Sym=    22a  
Ene=     3.6948
Spin= Alpha
Occup=    0.00000
   1        -0.00000000
   2         0.00000000
   3        -0.00000000
   4         0.00000000
   5        -0.00000000
   6         0.00000000
   7        -0.00000000
   8         0.00000000
   9        -0.00000000
  10         0.00000000
  11        -0.00000000
  12         0.00000000
  13        -0.00000000
  14         0.00000000
  15        -0.00000000
  16        -0.00000000
  17         0.00000000
  18         0.00000000
  19         0.00000000
  20        -0.00000000
  21        -0.00000000
  22        -0.00000000
  23         0.00000000
  24         0.00000000
  25         0.00000000
  26        -0.00000000
  27         0.00000000
  28         0.00000000
  29         0.00000000
  30        -0.00000000
  31        -0.00000000
  32        -0.00000000
  33        -0.00000000
  34        -0.00000000
  35         0.00000000
  36         0.00000000
  37         0.00000000
  38        -0.00000000
  39        -0.00000000
  40        -0.00000000
  41         0.00000000
  42         0.01724070
  43        -0.00007060
  44         0.04448678
  45        -0.00009763
  46        -0.01048880
  47        -0.09667515
  48         0.00039589
  49        -0.24945428
  50         0.00054743
  51         0.05881466
  52         0.51766648
  53        -0.00211985
  54         1.33575302
  55        -0.00293133
  56        -0.31493488
  57        -0.24636947
  58         0.00100889
  59        -0.63571581
  60         0.00139509
  61         0.14988481
Sym=    23a  
Ene=     3.6948
Spin= Alpha
Occup=    0.00000
   1        -0.00000000
   2        -0.00000000
   3        -0.00000000
   4        -0.00000000
   5        -0.00000000
   6        -0.00000000
   7         0.00000000
   8         0.00000000
   9        -0.00000000
  10         0.00000000
  11        -0.00000000
  12         0.00000000
  13        -0.00000000
  14         0.00000000
  15        -0.00000000
  16        -0.00000000
  17        -0.00000000
  18         0.00000000
  19         0.00000000
  20         0.00000000
  21        -0.00000000
  22        -0.00000000
  23        -0.00000000
  24         0.00000000
  25         0.00000000
  26         0.00000000
  27         0.00000000
  28         0.00000000
  29        -0.00000000
  30        -0.00000000
  31        -0.00000000
  32         0.00000000
  33        -0.00000000
  34        -0.00000000
  35        -0.00000000
  36         0.00000000
  37         0.00000000
  38         0.00000000
  39        -0.00000000
  40        -0.00000000
  41        -0.00000000
  42         0.03507915
  43         0.01213163
  44        -0.00628077
  45        -0.00317380
  46         0.03096935
  47        -0.19670209
  48        -0.06802668
  49         0.03521865
  50         0.01779673
  51        -0.17365691
  52         1.05328083
  53         0.36426251
  54        -0.18858535
  55        -0.09529614
  56         0.92988080
  57        -0.50128075
  58        -0.17336097
  59         0.08975214
  60         0.04535364
  61        -0.44255182
Sym=    24a  
Ene=     3.6998
Spin= Alpha
Occup=    0.00000
   1         0.00000000
   2        -0.00000000
   3         0.00000000
   4         0.00000000
   5         0.00000000
   6        -0.00000000
   7         0.00000000
   8        -0.00000000
   9        -0.00000000
  10         0.00000000
  11        -0.00000000
  12         0.00000000
  13        -0.00000000
  14         0.00000000
  15        -0.00000000
  16        -0.00000000
  17        -0.00131252
  18         0.00000000
  19         0.00000000
  20         0.01186021
  21        -0.00000000
  22        -0.00000000
  23        -0.05879218
  24         0.00000000
  25         0.00000000
  26         0.22666064
  27         0.00000000
  28         0.00000000
  29        -0.80632728
  30        -0.00000000
  31        -0.00000000
  32         2.90007643
  33        -0.00000000
  34        -0.00000000
  35        -2.83517965
  36         0.00000000
  37         0.00000000
  38         1.40373043
  39        -0.00000000
  40        -0.00000000
  41        -0.36341970
  42         0.00000000
  43         0.00000000
  44         0.00000000
  45         0.00000000
  46        -0.00000000
  47        -0.00000000
  48        -0.00000000
  49        -0.00000000
  50         0.00000000
  51         0.00000000
  52         0.00000000
  53        -0.00000000
  54         0.00000000
  55        -0.00000000
  56        -0.00000000
  57        -0.00000000
  58         0.00000000
  59        -0.00000000
  60         0.00000000
  61         0.00000000
Sym=    25a  
Ene=     3.6998
Spin= Alpha
Occup=    0.00000
   1        -0.00000000
   2        -0.00000000
   3        -0.00000000
   4        -0.00000000
   5        -0.00000000
   6        -0.00000000
   7        -0.00000000
   8        -0.00000000
   9        -0.00000000
  10        -0.00000000
  11         0.00000000
  12         0.00000000
  13         0.00000000
  14        -0.00000000
  15        -0.00000000
  16        -0.00131252
  17        -0.00000000
  18         0.00000000
  19         0.01186021
  20         0.00000000
  21        -0.00000000
  22        -0.05879218
  23        -0.00000000
  24         0.00000000
  25         0.22666064
  26         0.00000000
  27         0.00000000
  28        -0.80632728
  29         0.00000000
  30        -0.00000000
  31         2.90007643
  32        -0.00000000
  33        -0.00000000
  34        -2.83517965
  35        -0.00000000
  36         0.00000000
  37         1.40373043
  38         0.00000000
  39        -0.00000000
  40        -0.36341970
  41        -0.00000000
  42        -0.00000000
  43        -0.00000000
  44        -0.00000000
  45        -0.00000000
  46        -0.00000000
  47        -0.00000000
  48         0.00000000
  49        -0.00000000
  50         0.00000000
  51         0.00000000
  52        -0.00000000
  53        -0.00000000
  54         0.00000000
  55        -0.00000000
  56        -0.00000000
  57        -0.00000000
  58         0.00000000
  59         0.00000000
  60         0.00000000
  61         0.00000000
Sym=    26a  
Ene=     3.6998
Spin= Alpha
Occup=    0.00000
   1        -0.00000000
   2        -0.00000000
   3        -0.00000000
   4        -0.00000000
   5        -0.00000000
   6        -0.00000000
   7        -0.00000000
   8        -0.00000000
   9        -0.00000000
  10        -0.00000000
  11         0.00000000
  12         0.00000000
  13         0.00000000
  14        -0.00000000
  15        -0.00131252
  16        -0.00000000
  17        -0.00000000
  18         0.01186021
  19         0.00000000
  20         0.00000000
  21        -0.05879218
  22        -0.00000000
  23        -0.00000000
  24         0.22666064
  25         0.00000000
  26         0.00000000
  27        -0.80632728
  28         0.00000000
  29         0.00000000
  30         2.90007643
  31        -0.00000000
  32        -0.00000000
  33        -2.83517965
  34        -0.00000000
  35        -0.00000000
  36         1.40373043
  37         0.00000000
  38         0.00000000
  39        -0.36341970
  40        -0.00000000
  41        -0.00000000
  42        -0.00000000
  43        -0.00000000
  44        -0.00000000
  45        -0.00000000
  46        -0.00000000
  47        -0.00000000
  48         0.00000000
  49        -0.00000000
  50         0.00000000
  51         0.00000000
  52        -0.00000000
  53        -0.00000000
  54         0.00000000
  55        -0.00000000
  56        -0.00000000
  57        -0.00000000
  58         0.00000000
  59         0.00000000
  60         0.00000000
  61         0.00000000
Sym=    27a  
Ene=     4.0146
Spin= Alpha
Occup=    0.00000
   1        -0.00000312
   2         0.00003813
   3        -0.00027200
   4         0.00147402
   5        -0.00647220
   6         0.02691779
   7        -0.08819483
   8         0.34633683
   9        -0.82622535
  10         3.10056399
  11        -6.31224345
  12         5.86617780
  13        -2.70840740
  14         0.67267664
  15        -0.00000000
  16        -0.00000000
  17         0.00000000
  18         0.00000000
  19         0.00000000
  20        -0.00000000
  21        -0.00000000
  22        -0.00000000
  23         0.00000000
  24         0.00000000
  25         0.00000000
  26        -0.00000000
  27         0.00000000
  28        -0.00000000
  29         0.00000000
  30        -0.00000000
  31        -0.00000000
  32        -0.00000000
  33        -0.00000000
  34        -0.00000000
  35         0.00000000
  36         0.00000000
  37         0.00000000
  38         0.00000000
  39        -0.00000000
  40        -0.00000000
  41        -0.00000000
  42        -0.00000000
  43        -0.00000000
  44        -0.00000000
  45        -0.00000000
  46        -0.00000000
  47         0.00000000
  48         0.00000000
  49         0.00000000
  50         0.00000000
  51         0.00000000
  52        -0.00000000
  53        -0.00000000
  54        -0.00000000
  55        -0.00000000
  56        -0.00000000
  57         0.00000000
  58         0.00000000
  59         0.00000000
  60         0.00000000
  61         0.00000000
Sym=    28a  
Ene=     4.7411
Spin= Alpha
Occup=    0.00000
   1         0.00000000
   2        -0.00000000
   3         0.00000000
   4         0.00000000
   5        -0.00000000
   6        -0.00000000
   7         0.00000000
   8        -0.00000000
   9        -0.00000000
  10         0.00000000
  11        -0.00000000
  12         0.00000000
  13        -0.00000000
  14         0.00000000
  15         0.00000000
  16         0.00000000
  17         0.00365297
  18        -0.00000000
  19        -0.00000000
  20        -0.03355060
  21         0.00000000
  22         0.00000000
  23         0.17223192
  24        -0.00000000
  25        -0.00000000
  26        -0.71464487
  27        -0.00000000
  28        -0.00000000
  29         2.86764427
  30         0.00000000
  31         0.00000000
  32        -3.05078464
  33         0.00000000
  34         0.00000000
  35         1.90124666
  36        -0.00000000
  37        -0.00000000
  38        -0.82579696
  39         0.00000000
  40         0.00000000
  41         0.21096474
  42        -0.00000000
  43         0.00000000
  44        -0.00000000
  45         0.00000000
  46        -0.00000000
  47        -0.00000000
  48        -0.00000000
  49         0.00000000
  50        -0.00000000
  51         0.00000000
  52         0.00000000
  53         0.00000000
  54         0.00000000
  55        -0.00000000
  56        -0.00000000
  57        -0.00000000
  58         0.00000000
  59        -0.00000000
  60        -0.00000000
  61         0.00000000
Sym=    29a  
Ene=     4.7411
Spin= Alpha
Occup=    0.00000
   1         0.00000000
   2         0.00000000
   3         0.00000000
   4         0.00000000
   5         0.00000000
   6         0.00000000
   7         0.00000000
   8         0.00000000
   9         0.00000000
  10         0.00000000
  11        -0.00000000
  12        -0.00000000
  13        -0.00000000
  14         0.00000000
  15         0.00000000
  16         0.00365297
  17         0.00000000
  18        -0.00000000
  19        -0.03355060
  20        -0.00000000
  21         0.00000000
  22         0.17223192
  23         0.00000000
  24        -0.00000000
  25        -0.71464487
  26        -0.00000000
  27        -0.00000000
  28         2.86764427
  29        -0.00000000
  30         0.00000000
  31        -3.05078464
  32         0.00000000
  33         0.00000000
  34         1.90124666
  35         0.00000000
  36        -0.00000000
  37        -0.82579696
  38        -0.00000000
  39         0.00000000
  40         0.21096474
  41         0.00000000
  42         0.00000000
  43         0.00000000
  44         0.00000000
  45         0.00000000
  46         0.00000000
  47         0.00000000
  48        -0.00000000
  49         0.00000000
  50        -0.00000000
  51        -0.00000000
  52         0.00000000
  53         0.00000000
  54        -0.00000000
  55         0.00000000
  56         0.00000000
  57         0.00000000
  58        -0.00000000
  59        -0.00000000
  60        -0.00000000
  61        -0.00000000
Sym=    30a  
Ene=     4.7411
Spin= Alpha
Occup=    0.00000
   1         0.00000000
   2         0.00000000
   3         0.00000000
   4         0.00000000
   5         0.00000000
   6         0.00000000
   7         0.00000000
   8         0.00000000
   9         0.00000000
  10         0.00000000
  11        -0.00000000
  12        -0.00000000
  13        -0.00000000
  14         0.00000000
  15         0.00365297
  16         0.00000000
  17         0.00000000
  18        -0.03355060
  19        -0.00000000
  20        -0.00000000
  21         0.17223192
  22         0.00000000
  23         0.00000000
  24        -0.71464487
  25        -0.00000000
  26        -0.00000000
  27         2.86764427
  28        -0.00000000
  29        -0.00000000
  30        -3.05078464
  31         0.00000000
  32         0.00000000
  33         1.90124666
  34         0.00000000
  35         0.00000000
  36        -0.82579696
  37        -0.00000000
  38        -0.00000000
  39         0.21096474
  40         0.00000000
  41         0.00000000
  42         0.00000000
  43         0.00000000
  44         0.00000000
  45         0.00000000
  46         0.00000000
  47         0.00000000
  48        -0.00000000
  49         0.00000000
  50        -0.00000000
  51        -0.00000000
  52         0.00000000
  53         0.00000000
  54        -0.00000000
  55         0.00000000
  56         0.00000000
  57         0.00000000
  58        -0.00000000
  59        -0.00000000
  60        -0.00000000
  61        -0.00000000
Sym=    31a  
Ene=     5.1102
Spin= Alpha
Occup=    0.00000
   1         0.00000000
   2        -0.00000000
   3        -0.00000000
   4        -0.00000000
   5        -0.00000000
   6         0.00000000
   7         0.00000000
   8        -0.00000000
   9         0.00000000
  10        -0.00000000
  11         0.00000000
  12        -0.00000000
  13         0.00000000
  14         0.00000000
  15         0.00000000
  16         0.00000000
  17        -0.00000000
  18        -0.00000000
  19        -0.00000000
  20         0.00000000
  21         0.00000000
  22         0.00000000
  23        -0.00000000
  24         0.00000000
  25         0.00000000
  26         0.00000000
  27        -0.00000000
  28        -0.00000000
  29        -0.00000000
  30         0.00000000
  31         0.00000000
  32         0.00000000
  33         0.00000000
  34        -0.00000000
  35        -0.00000000
  36        -0.00000000
  37        -0.00000000
  38         0.00000000
  39         0.00000000
  40        -0.00000000
  41         0.00000000
  42        -0.15527219
  43        -0.01120209
  44        -0.07061308
  45        -0.01469917
  46        -0.12430403
  47         1.11737237
  48         0.08061268
  49         0.50814702
  50         0.10577839
  51         0.89451881
  52        -0.73627449
  53        -0.05311842
  54        -0.33483528
  55        -0.06970096
  56        -0.58942874
  57         0.24939043
  58         0.01799224
  59         0.11341519
  60         0.02360907
  61         0.19965093
Sym=    32a  
Ene=     5.1102
Spin= Alpha
Occup=    0.00000
   1         0.00000000
   2        -0.00000000
   3        -0.00000000
   4        -0.00000000
   5        -0.00000000
   6         0.00000000
   7        -0.00000000
   8         0.00000000
   9        -0.00000000
  10         0.00000000
  11        -0.00000000
  12        -0.00000000
  13         0.00000000
  14        -0.00000000
  15         0.00000000
  16         0.00000000
  17        -0.00000000
  18        -0.00000000
  19        -0.00000000
  20         0.00000000
  21         0.00000000
  22         0.00000000
  23        -0.00000000
  24        -0.00000000
  25         0.00000000
  26         0.00000000
  27        -0.00000000
  28        -0.00000000
  29        -0.00000000
  30         0.00000000
  31         0.00000000
  32         0.00000000
  33         0.00000000
  34         0.00000000
  35        -0.00000000
  36        -0.00000000
  37        -0.00000000
  38         0.00000000
  39         0.00000000
  40         0.00000000
  41         0.00000000
  42         0.14309316
  43        -0.01110172
  44        -0.05717928
  45        -0.00252131
  46        -0.14496198
  47        -1.02972943
  48         0.07989041
  49         0.41147451
  50         0.01814389
  51         1.04317791
  52         0.67852359
  53        -0.05264250
  54        -0.27113449
  55        -0.01195563
  56        -0.68738525
  57        -0.22982908
  58         0.01783103
  59         0.09183850
  60         0.00404960
  61         0.23283070
Sym=    33a  
Ene=     5.1102
Spin= Alpha
Occup=    0.00000
   1         0.00000000
   2         0.00000000
   3        -0.00000000
   4        -0.00000000
   5        -0.00000000
   6         0.00000000
   7        -0.00000000
   8         0.00000000
   9        -0.00000000
  10         0.00000000
  11        -0.00000000
  12         0.00000000
  13        -0.00000000
  14         0.00000000
  15         0.00000000
  16         0.00000000
  17         0.00000000
  18        -0.00000000
  19        -0.00000000
  20        -0.00000000
  21         0.00000000
  22         0.00000000
  23         0.00000000
  24        -0.00000000
  25        -0.00000000
  26        -0.00000000
  27        -0.00000000
  28        -0.00000000
  29         0.00000000
  30         0.00000000
  31         0.00000000
  32        -0.00000000
  33         0.00000000
  34         0.00000000
  35         0.00000000
  36        -0.00000000
  37        -0.00000000
  38        -0.00000000
  39         0.00000000
  40         0.00000000
  41         0.00000000
  42        -0.00930504
  43        -0.00820077
  44         0.17435869
  45        -0.09273945
  46        -0.07571863
  47         0.06696105
  48         0.05901449
  49        -1.25472296
  50         0.66737318
  51         0.54488773
  52        -0.04412291
  53        -0.03888665
  54         0.82677945
  55        -0.43975479
  56        -0.35904498
  57         0.01494528
  58         0.01317166
  59        -0.28004621
  60         0.14895346
  61         0.12161549
Sym=    34a  
Ene=     5.1102
Spin= Alpha
Occup=    0.00000
   1        -0.00000000
   2         0.00000000
   3        -0.00000000
   4         0.00000000
   5         0.00000000
   6        -0.00000000
   7         0.00000000
   8        -0.00000000
   9        -0.00000000
  10         0.00000000
  11        -0.00000000
  12         0.00000000
  13        -0.00000000
  14         0.00000000
  15         0.00000000
  16         0.00000000
  17         0.00000000
  18        -0.00000000
  19        -0.00000000
  20        -0.00000000
  21         0.00000000
  22         0.00000000
  23         0.00000000
  24        -0.00000000
  25        -0.00000000
  26        -0.00000000
  27        -0.00000000
  28        -0.00000000
  29         0.00000000
  30         0.00000000
  31         0.00000000
  32        -0.00000000
  33         0.00000000
  34         0.00000000
  35         0.00000000
  36        -0.00000000
  37        -0.00000000
  38        -0.00000000
  39         0.00000000
  40         0.00000000
  41        -0.00000000
  42         0.01435668
  43         0.03216885
  44        -0.07801877
  45        -0.18832705
  46         0.04575752
  47        -0.10331378
  48        -0.23149404
  49         0.56144000
  50         1.35524230
  51        -0.32928104
  52         0.06807695
  53         0.15253926
  54        -0.36995183
  55        -0.89301504
  56         0.21697443
  57        -0.02305898
  58        -0.05166800
  59         0.12530985
  60         0.30248149
  61        -0.07349344
Sym=    35a  
Ene=     5.1102
Spin= Alpha
Occup=    0.00000
   1        -0.00000000
   2         0.00000000
   3        -0.00000000
   4         0.00000000
   5        -0.00000000
   6         0.00000000
   7        -0.00000000
   8         0.00000000
   9        -0.00000000
  10         0.00000000
  11        -0.00000000
  12         0.00000000
  13        -0.00000000
  14         0.00000000
  15         0.00000000
  16         0.00000000
  17         0.00000000
  18        -0.00000000
  19        -0.00000000
  20        -0.00000000
  21         0.00000000
  22         0.00000000
  23         0.00000000
  24        -0.00000000
  25        -0.00000000
  26        -0.00000000
  27        -0.00000000
  28        -0.00000000
  29         0.00000000
  30         0.00000000
  31         0.00000000
  32        -0.00000000
  33         0.00000000
  34         0.00000000
  35         0.00000000
  36        -0.00000000
  37        -0.00000000
  38        -0.00000000
  39         0.00000000
  40         0.00000000
  41         0.00000000
  42         0.00330177
  43        -0.20865733
  44        -0.01204773
  45        -0.02446633
  46         0.02441664
  47        -0.02376027
  48         1.50154344
  49         0.08669805
  50         0.17606499
  51        -0.17570743
  52         0.01565644
  53        -0.98941782
  54        -0.05712828
  55        -0.11601518
  56         0.11577958
  57        -0.00530314
  58         0.33513498
  59         0.01935046
  60         0.03929659
  61        -0.03921679
Sym=    36a  
Ene=     6.3101
Spin= Alpha
Occup=    0.00000
   1        -0.00001029
   2         0.00012564
   3        -0.00090098
   4         0.00482662
   5        -0.02206541
   6         0.08536186
   7        -0.34212230
   8         1.05840249
   9        -4.16051896
  10         7.45046719
  11        -6.29384481
  12         3.36903933
  13        -1.47523889
  14         0.34599453
  15        -0.00000000
  16        -0.00000000
  17        -0.00000000
  18         0.00000000
  19         0.00000000
  20         0.00000000
  21        -0.00000000
  22        -0.00000000
  23        -0.00000000
  24         0.00000000
  25         0.00000000
  26         0.00000000
  27         0.00000000
  28         0.00000000
  29        -0.00000000
  30        -0.00000000
  31        -0.00000000
  32         0.00000000
  33        -0.00000000
  34        -0.00000000
  35        -0.00000000
  36         0.00000000
  37         0.00000000
  38         0.00000000
  39        -0.00000000
  40        -0.00000000
  41        -0.00000000
  42        -0.00000000
  43        -0.00000000
  44        -0.00000000
  45        -0.00000000
  46         0.00000000
  47         0.00000000
  48        -0.00000000
  49         0.00000000
  50         0.00000000
  51        -0.00000000
  52        -0.00000000
  53        -0.00000000
  54        -0.00000000
  55        -0.00000000
  56         0.00000000
  57         0.00000000
  58         0.00000000
  59         0.00000000
  60         0.00000000
  61        -0.00000000
Sym=    37a  
Ene=     7.3443
Spin= Alpha
Occup=    0.00000
   1         0.00000000
   2        -0.00000000
   3         0.00000000
   4         0.00000000
   5        -0.00000000
   6         0.00000000
   7        -0.00000000
   8         0.00000000
   9        -0.00000000
  10         0.00000000
  11        -0.00000000
  12         0.00000000
  13         0.00000000
  14        -0.00000000
  15        -0.00000000
  16        -0.00000000
  17        -0.01060309
  18         0.00000000
  19         0.00000000
  20         0.10127846
  21        -0.00000000
  22        -0.00000000
  23        -0.56339860
  24         0.00000000
  25         0.00000000
  26         2.67993504
  27         0.00000000
  28         0.00000000
  29        -2.96408760
  30        -0.00000000
  31        -0.00000000
  32         2.01107460
  33        -0.00000000
  34        -0.00000000
  35        -1.10320054
  36         0.00000000
  37         0.00000000
  38         0.47313604
  39        -0.00000000
  40        -0.00000000
  41        -0.12253614
  42        -0.00000000
  43        -0.00000000
  44        -0.00000000
  45        -0.00000000
  46        -0.00000000
  47         0.00000000
  48        -0.00000000
  49        -0.00000000
  50        -0.00000000
  51        -0.00000000
  52        -0.00000000
  53         0.00000000
  54         0.00000000
  55        -0.00000000
  56        -0.00000000
  57         0.00000000
  58         0.00000000
  59        -0.00000000
  60         0.00000000
  61         0.00000000
Sym=    38a  
Ene=     7.3443
Spin= Alpha
Occup=    0.00000
   1        -0.00000000
   2        -0.00000000
   3        -0.00000000
   4        -0.00000000
   5        -0.00000000
   6        -0.00000000
   7        -0.00000000
   8        -0.00000000
   9        -0.00000000
  10        -0.00000000
  11         0.00000000
  12         0.00000000
  13         0.00000000
  14        -0.00000000
  15        -0.00000000
  16        -0.01060309
  17        -0.00000000
  18         0.00000000
  19         0.10127846
  20         0.00000000
  21        -0.00000000
  22        -0.56339860
  23        -0.00000000
  24         0.00000000
  25         2.67993504
  26         0.00000000
  27         0.00000000
  28        -2.96408760
  29         0.00000000
  30        -0.00000000
  31         2.01107460
  32        -0.00000000
  33        -0.00000000
  34        -1.10320054
  35        -0.00000000
  36         0.00000000
  37         0.47313604
  38         0.00000000
  39        -0.00000000
  40        -0.12253614
  41        -0.00000000
  42        -0.00000000
  43        -0.00000000
  44        -0.00000000
  45        -0.00000000
  46        -0.00000000
  47        -0.00000000
  48         0.00000000
  49        -0.00000000
  50         0.00000000
  51         0.00000000
  52        -0.00000000
  53        -0.00000000
  54         0.00000000
  55        -0.00000000
  56        -0.00000000
  57        -0.00000000
  58         0.00000000
  59         0.00000000
  60         0.00000000
  61         0.00000000
Sym=    39a  
Ene=     7.3443
Spin= Alpha
Occup=    0.00000
   1        -0.00000000
   2        -0.00000000
   3        -0.00000000
   4        -0.00000000
   5        -0.00000000
   6        -0.00000000
   7        -0.00000000
   8        -0.00000000
   9        -0.00000000
  10        -0.00000000
  11         0.00000000
  12         0.00000000
  13         0.00000000
  14        -0.00000000
  15        -0.01060309
  16        -0.00000000
  17        -0.00000000
  18         0.10127846
  19         0.00000000
  20         0.00000000
  21        -0.56339860
  22        -0.00000000
  23        -0.00000000
  24         2.67993504
  25         0.00000000
  26         0.00000000
  27        -2.96408760
  28         0.00000000
  29         0.00000000
  30         2.01107460
  31        -0.00000000
  32        -0.00000000
  33        -1.10320054
  34        -0.00000000
  35        -0.00000000
  36         0.47313604
  37         0.00000000
  38         0.00000000
  39        -0.12253614
  40        -0.00000000
  41        -0.00000000
  42        -0.00000000
  43        -0.00000000
  44        -0.00000000
  45        -0.00000000
  46        -0.00000000
  47        -0.00000000
  48         0.00000000
  49        -0.00000000
  50         0.00000000
  51         0.00000000
  52        -0.00000000
  53        -0.00000000
  54         0.00000000
  55        -0.00000000
  56        -0.00000000
  57        -0.00000000
  58         0.00000000
  59         0.00000000
  60         0.00000000
  61         0.00000000
Sym=    40a  
Ene=     9.3895
Spin= Alpha
Occup=    0.00000
   1        -0.00000000
   2        -0.00000000
   3         0.00000000
   4        -0.00000000
   5        -0.00000000
   6        -0.00000000
   7         0.00000000
   8         0.00000000
   9         0.00000000
  10        -0.00000000
  11         0.00000000
  12        -0.00000000
  13         0.00000000
  14        -0.00000000
  15         0.00000000
  16        -0.00000000
  17         0.00000000
  18         0.00000000
  19         0.00000000
  20        -0.00000000
  21         0.00000000
  22        -0.00000000
  23         0.00000000
  24        -0.00000000
  25         0.00000000
  26        -0.00000000
  27         0.00000000
  28         0.00000000
  29         0.00000000
  30        -0.00000000
  31        -0.00000000
  32        -0.00000000
  33        -0.00000000
  34        -0.00000000
  35         0.00000000
  36         0.00000000
  37         0.00000000
  38        -0.00000000
  39        -0.00000000
  40        -0.00000000
  41        -0.00000000
  42        -0.06429043
  43        -0.37086833
  44        -0.12392089
  45         0.57807146
  46         1.18248006
  47         0.04816855
  48         0.27786701
  49         0.09284569
  50        -0.43311056
  51        -0.88595379
  52        -0.02241004
  53        -0.12927544
  54        -0.04319573
  55         0.20150127
  56         0.41218301
  57         0.00737222
  58         0.04252771
  59         0.01421009
  60        -0.06628782
  61        -0.13559575
Sym=    41a  
Ene=     9.3895
Spin= Alpha
Occup=    0.00000
   1         0.00000000
   2         0.00000000
   3         0.00000000
   4        -0.00000000
   5         0.00000000
   6        -0.00000000
   7        -0.00000000
   8         0.00000000
   9        -0.00000000
  10         0.00000000
  11         0.00000000
  12        -0.00000000
  13         0.00000000
  14        -0.00000000
  15         0.00000000
  16         0.00000000
  17         0.00000000
  18        -0.00000000
  19        -0.00000000
  20        -0.00000000
  21         0.00000000
  22         0.00000000
  23         0.00000000
  24        -0.00000000
  25         0.00000000
  26        -0.00000000
  27        -0.00000000
  28        -0.00000000
  29         0.00000000
  30         0.00000000
  31         0.00000000
  32         0.00000000
  33         0.00000000
  34         0.00000000
  35        -0.00000000
  36        -0.00000000
  37        -0.00000000
  38         0.00000000
  39         0.00000000
  40         0.00000000
  41         0.00000000
  42         1.36957806
  43         0.07575427
  44         0.00527567
  45         0.03127084
  46         0.08348776
  47        -1.02613389
  48        -0.05675764
  49        -0.00395271
  50        -0.02342916
  51        -0.06255183
  52         0.47740070
  53         0.02640604
  54         0.00183897
  55         0.01090023
  56         0.02910175
  57        -0.15705039
  58        -0.00868679
  59        -0.00060496
  60        -0.00358585
  61        -0.00957359
Sym=    42a  
Ene=     9.3895
Spin= Alpha
Occup=    0.00000
   1        -0.00000000
   2         0.00000000
   3        -0.00000000
   4         0.00000000
   5        -0.00000000
   6         0.00000000
   7        -0.00000000
   8         0.00000000
   9        -0.00000000
  10        -0.00000000
  11         0.00000000
  12         0.00000000
  13         0.00000000
  14        -0.00000000
  15        -0.00000000
  16        -0.00000000
  17         0.00000000
  18         0.00000000
  19         0.00000000
  20        -0.00000000
  21        -0.00000000
  22        -0.00000000
  23         0.00000000
  24         0.00000000
  25         0.00000000
  26        -0.00000000
  27         0.00000000
  28         0.00000000
  29         0.00000000
  30        -0.00000000
  31        -0.00000000
  32        -0.00000000
  33        -0.00000000
  34        -0.00000000
  35         0.00000000
  36         0.00000000
  37         0.00000000
  38        -0.00000000
  39        -0.00000000
  40        -0.00000000
  41        -0.00000000
  42        -0.01543931
  43         0.02277762
  44         1.36732274
  45         0.02967149
  46         0.13509108
  47         0.01156765
  48        -0.01706576
  49        -1.02444413
  50        -0.02223087
  51        -0.10121477
  52        -0.00538176
  53         0.00793971
  54         0.47661455
  55         0.01034274
  56         0.04708937
  57         0.00177044
  58        -0.00261192
  59        -0.15679177
  60        -0.00340245
  61        -0.01549098
Sym=    43a  
Ene=     9.3895
Spin= Alpha
Occup=    0.00000
   1        -0.00000000
   2        -0.00000000
   3         0.00000000
   4        -0.00000000
   5         0.00000000
   6        -0.00000000
   7         0.00000000
   8         0.00000000
   9        -0.00000000
  10         0.00000000
  11        -0.00000000
  12         0.00000000
  13        -0.00000000
  14         0.00000000
  15        -0.00000000
  16        -0.00000000
  17        -0.00000000
  18         0.00000000
  19         0.00000000
  20         0.00000000
  21        -0.00000000
  22        -0.00000000
  23        -0.00000000
  24         0.00000000
  25         0.00000000
  26         0.00000000
  27         0.00000000
  28         0.00000000
  29        -0.00000000
  30        -0.00000000
  31        -0.00000000
  32         0.00000000
  33        -0.00000000
  34        -0.00000000
  35        -0.00000000
  36         0.00000000
  37         0.00000000
  38         0.00000000
  39        -0.00000000
  40        -0.00000000
  41         0.00000000
  42        -0.05000618
  43         0.77756628
  44        -0.00817355
  45         1.09347654
  46        -0.29426345
  47         0.03746631
  48        -0.58257878
  49         0.00612390
  50        -0.81926936
  51         0.22047207
  52        -0.01743091
  53         0.27104018
  54        -0.00284910
  55         0.38115861
  56        -0.10257289
  57         0.00573424
  58        -0.08916402
  59         0.00093727
  60        -0.12538966
  61         0.03374338
Sym=    44a  
Ene=     9.3895
Spin= Alpha
Occup=    0.00000
   1        -0.00000000
   2         0.00000000
   3        -0.00000000
   4         0.00000000
   5        -0.00000000
   6         0.00000000
   7         0.00000000
   8        -0.00000000
   9         0.00000000
  10        -0.00000000
  11         0.00000000
  12         0.00000000
  13        -0.00000000
  14         0.00000000
  15        -0.00000000
  16        -0.00000000
  17         0.00000000
  18         0.00000000
  19         0.00000000
  20        -0.00000000
  21        -0.00000000
  22        -0.00000000
  23         0.00000000
  24         0.00000000
  25         0.00000000
  26        -0.00000000
  27         0.00000000
  28         0.00000000
  29         0.00000000
  30        -0.00000000
  31        -0.00000000
  32        -0.00000000
  33        -0.00000000
  34        -0.00000000
  35         0.00000000
  36         0.00000000
  37         0.00000000
  38        -0.00000000
  39        -0.00000000
  40        -0.00000000
  41        -0.00000000
  42        -0.08271857
  43         1.06819872
  44        -0.06660453
  45        -0.59811608
  46         0.61594545
  47         0.06197553
  48        -0.80033037
  49         0.04990235
  50         0.44812866
  51        -0.46148702
  52        -0.02883363
  53         0.37234739
  54        -0.02321667
  55        -0.20848832
  56         0.21470320
  57         0.00948539
  58        -0.12249103
  59         0.00763758
  60         0.06858635
  61        -0.07063086
Sym=    45a  
Ene=    12.8600
Spin= Alpha
Occup=    0.00000
   1        -0.00003183
   2         0.00038916
   3        -0.00278624
   4         0.01514083
   5        -0.06841804
   6         0.28938792
   7        -1.09368266
   8         4.64449105
   9        -7.43068229
  10         6.07097083
  11        -3.66021797
  12         1.90186305
  13        -0.75261732
  14         0.18548046
  15         0.00000000
  16         0.00000000
  17         0.00000000
  18        -0.00000000
  19        -0.00000000
  20        -0.00000000
  21         0.00000000
  22         0.00000000
  23         0.00000000
  24        -0.00000000
  25        -0.00000000
  26        -0.00000000
  27        -0.00000000
  28        -0.00000000
  29         0.00000000
  30         0.00000000
  31         0.00000000
  32        -0.00000000
  33         0.00000000
  34         0.00000000
  35         0.00000000
  36        -0.00000000
  37        -0.00000000
  38        -0.00000000
  39         0.00000000
  40         0.00000000
  41        -0.00000000
  42        -0.00000000
  43        -0.00000000
  44        -0.00000000
  45        -0.00000000
  46        -0.00000000
  47         0.00000000
  48         0.00000000
  49         0.00000000
  50         0.00000000
  51         0.00000000
  52        -0.00000000
  53        -0.00000000
  54        -0.00000000
  55        -0.00000000
  56         0.00000000
  57         0.00000000
  58         0.00000000
  59         0.00000000
  60        -0.00000000
  61        -0.00000000
Sym=    46a  
Ene=    14.1670
Spin= Alpha
Occup=    0.00000
   1        -0.00000000
   2         0.00000000
   3         0.00000000
   4        -0.00000000
   5         0.00000000
   6        -0.00000000
   7         0.00000000
   8        -0.00000000
   9         0.00000000
  10        -0.00000000
  11         0.00000000
  12        -0.00000000
  13         0.00000000
  14        -0.00000000
  15        -0.00000000
  16        -0.00000000
  17         0.03357444
  18         0.00000000
  19         0.00000000
  20        -0.35409953
  21        -0.00000000
  22        -0.00000000
  23         2.34081123
  24         0.00000000
  25         0.00000000
  26        -2.65216097
  27         0.00000000
  28         0.00000000
  29         1.88060307
  30        -0.00000000
  31        -0.00000000
  32        -1.13288768
  33        -0.00000000
  34        -0.00000000
  35         0.61595319
  36         0.00000000
  37         0.00000000
  38        -0.26753668
  39        -0.00000000
  40        -0.00000000
  41         0.07014175
  42        -0.00000000
  43        -0.00000000
  44        -0.00000000
  45        -0.00000000
  46        -0.00000000
  47         0.00000000
  48         0.00000000
  49        -0.00000000
  50         0.00000000
  51         0.00000000
  52        -0.00000000
  53        -0.00000000
  54         0.00000000
  55        -0.00000000
  56        -0.00000000
  57         0.00000000
  58         0.00000000
  59         0.00000000
  60         0.00000000
  61         0.00000000
Sym=    47a  
Ene=    14.1670
Spin= Alpha
Occup=    0.00000
   1        -0.00000000
   2        -0.00000000
   3        -0.00000000
   4        -0.00000000
   5        -0.00000000
   6        -0.00000000
   7        -0.00000000
   8        -0.00000000
   9        -0.00000000
  10        -0.00000000
  11         0.00000000
  12         0.00000000
  13         0.00000000
  14        -0.00000000
  15        -0.00000000
  16         0.03357444
  17        -0.00000000
  18         0.00000000
  19        -0.35409953
  20         0.00000000
  21        -0.00000000
  22         2.34081123
  23        -0.00000000
  24         0.00000000
  25        -2.65216097
  26         0.00000000
  27         0.00000000
  28         1.88060307
  29         0.00000000
  30        -0.00000000
  31        -1.13288768
  32        -0.00000000
  33        -0.00000000
  34         0.61595319
  35        -0.00000000
  36         0.00000000
  37        -0.26753668
  38         0.00000000
  39        -0.00000000
  40         0.07014175
  41        -0.00000000
  42        -0.00000000
  43        -0.00000000
  44        -0.00000000
  45        -0.00000000
  46        -0.00000000
  47        -0.00000000
  48         0.00000000
  49        -0.00000000
  50         0.00000000
  51         0.00000000
  52        -0.00000000
  53        -0.00000000
  54         0.00000000
  55        -0.00000000
  56        -0.00000000
  57        -0.00000000
  58         0.00000000
  59         0.00000000
  60         0.00000000
  61         0.00000000
Sym=    48a  
Ene=    14.1670
Spin= Alpha
Occup=    0.00000
   1        -0.00000000
   2        -0.00000000
   3        -0.00000000
   4        -0.00000000
   5        -0.00000000
   6        -0.00000000
   7        -0.00000000
   8        -0.00000000
   9        -0.00000000
  10        -0.00000000
  11         0.00000000
  12         0.00000000
  13         0.00000000
  14        -0.00000000
  15         0.03357444
  16        -0.00000000
  17        -0.00000000
  18        -0.35409953
  19         0.00000000
  20         0.00000000
  21         2.34081123
  22        -0.00000000
  23        -0.00000000
  24        -2.65216097
  25         0.00000000
  26         0.00000000
  27         1.88060307
  28         0.00000000
  29         0.00000000
  30        -1.13288768
  31        -0.00000000
  32        -0.00000000
  33         0.61595319
  34        -0.00000000
  35        -0.00000000
  36        -0.26753668
  37         0.00000000
  38         0.00000000
  39         0.07014175
  40        -0.00000000
  41        -0.00000000
  42        -0.00000000
  43        -0.00000000
  44        -0.00000000
  45        -0.00000000
  46        -0.00000000
  47        -0.00000000
  48         0.00000000
  49        -0.00000000
  50         0.00000000
  51         0.00000000
  52        -0.00000000
  53        -0.00000000
  54         0.00000000
  55        -0.00000000
  56        -0.00000000
  57        -0.00000000
  58         0.00000000
  59         0.00000000
  60         0.00000000
  61         0.00000000
Sym=    49a  
Ene=    30.2880
Spin= Alpha
Occup=    0.00000
   1         0.00009355
   2        -0.00114424
   3         0.00824362
   4        -0.04510118
   5         0.21346502
   6        -0.93426695
   7         4.27765343
   8        -6.47981140
   9         5.35280505
  10        -3.53945381
  11         2.02388309
  12        -0.98649200
  13         0.43248304
  14        -0.10358198
  15        -0.00000000
  16        -0.00000000
  17         0.00000000
  18         0.00000000
  19         0.00000000
  20        -0.00000000
  21        -0.00000000
  22        -0.00000000
  23        -0.00000000
  24         0.00000000
  25         0.00000000
  26         0.00000000
  27         0.00000000
  28         0.00000000
  29        -0.00000000
  30        -0.00000000
  31        -0.00000000
  32         0.00000000
  33        -0.00000000
  34        -0.00000000
  35        -0.00000000
  36         0.00000000
  37         0.00000000
  38         0.00000000
  39        -0.00000000
  40        -0.00000000
  41        -0.00000000
  42        -0.00000000
  43        -0.00000000
  44        -0.00000000
  45        -0.00000000
  46        -0.00000000
  47         0.00000000
  48         0.00000000
  49         0.00000000
  50         0.00000000
  51         0.00000000
  52        -0.00000000
  53        -0.00000000
  54        -0.00000000
  55         0.00000000
  56        -0.00000000
  57         0.00000000
  58         0.00000000
  59         0.00000000
  60         0.00000000
  61         0.00000000
Sym=    50a  
Ene=    34.0240
Spin= Alpha
Occup=    0.00000
   1         0.00000000
   2         0.00000000
   3         0.00000000
   4        -0.00000000
   5         0.00000000
   6        -0.00000000
   7         0.00000000
   8        -0.00000000
   9         0.00000000
  10        -0.00000000
  11        -0.00000000
  12        -0.00000000
  13        -0.00000000
  14         0.00000000
  15         0.00000000
  16         0.00000000
  17        -0.13266498
  18        -0.00000000
  19        -0.00000000
  20         1.84676789
  21         0.00000000
  22         0.00000000
  23        -2.08590579
  24        -0.00000000
  25        -0.00000000
  26         1.54451447
  27        -0.00000000
  28        -0.00000000
  29        -0.99148580
  30         0.00000000
  31         0.00000000
  32         0.59665165
  33         0.00000000
  34         0.00000000
  35        -0.32928619
  36        -0.00000000
  37        -0.00000000
  38         0.14465487
  39         0.00000000
  40         0.00000000
  41        -0.03819989
  42         0.00000000
  43         0.00000000
  44        -0.00000000
  45         0.00000000
  46         0.00000000
  47        -0.00000000
  48        -0.00000000
  49         0.00000000
  50        -0.00000000
  51        -0.00000000
  52         0.00000000
  53         0.00000000
  54        -0.00000000
  55         0.00000000
  56         0.00000000
  57         0.00000000
  58         0.00000000
  59        -0.00000000
  60        -0.00000000
  61        -0.00000000
Sym=    51a  
Ene=    34.0240
Spin= Alpha
Occup=    0.00000
   1         0.00000000
   2         0.00000000
   3         0.00000000
   4         0.00000000
   5         0.00000000
   6         0.00000000
   7         0.00000000
   8         0.00000000
   9         0.00000000
  10         0.00000000
  11        -0.00000000
  12        -0.00000000
  13        -0.00000000
  14         0.00000000
  15         0.00000000
  16        -0.13266498
  17         0.00000000
  18        -0.00000000
  19         1.84676789
  20        -0.00000000
  21         0.00000000
  22        -2.08590579
  23         0.00000000
  24        -0.00000000
  25         1.54451447
  26        -0.00000000
  27        -0.00000000
  28        -0.99148580
  29        -0.00000000
  30         0.00000000
  31         0.59665165
  32         0.00000000
  33         0.00000000
  34        -0.32928619
  35         0.00000000
  36        -0.00000000
  37         0.14465487
  38        -0.00000000
  39         0.00000000
  40        -0.03819989
  41         0.00000000
  42         0.00000000
  43         0.00000000
  44         0.00000000
  45         0.00000000
  46         0.00000000
  47         0.00000000
  48        -0.00000000
  49         0.00000000
  50        -0.00000000
  51        -0.00000000
  52         0.00000000
  53         0.00000000
  54        -0.00000000
  55         0.00000000
  56         0.00000000
  57         0.00000000
  58        -0.00000000
  59        -0.00000000
  60        -0.00000000
  61        -0.00000000
Sym=    52a  
Ene=    34.0240
Spin= Alpha
Occup=    0.00000
   1         0.00000000
   2         0.00000000
   3         0.00000000
   4         0.00000000
   5         0.00000000
   6         0.00000000
   7         0.00000000
   8         0.00000000
   9         0.00000000
  10         0.00000000
  11        -0.00000000
  12        -0.00000000
  13        -0.00000000
  14         0.00000000
  15        -0.13266498
  16         0.00000000
  17         0.00000000
  18         1.84676789
  19        -0.00000000
  20        -0.00000000
  21        -2.08590579
  22         0.00000000
  23         0.00000000
  24         1.54451447
  25        -0.00000000
  26        -0.00000000
  27        -0.99148580
  28        -0.00000000
  29        -0.00000000
  30         0.59665165
  31         0.00000000
  32         0.00000000
  33        -0.32928619
  34         0.00000000
  35         0.00000000
  36         0.14465487
  37        -0.00000000
  38        -0.00000000
  39        -0.03819989
  40         0.00000000
  41         0.00000000
  42         0.00000000
  43         0.00000000
  44         0.00000000
  45         0.00000000
  46         0.00000000
  47         0.00000000
  48        -0.00000000
  49         0.00000000
  50        -0.00000000
  51        -0.00000000
  52         0.00000000
  53         0.00000000
  54        -0.00000000
  55         0.00000000
  56         0.00000000
  57         0.00000000
  58        -0.00000000
  59        -0.00000000
  60        -0.00000000
  61        -0.00000000
