[MOLDEN FORMAT]
[N_ATOMS]
                    1
[ATOMS] (AU)
BE          1      4           0.00000000      0.00000000      0.00000000
[5D]
[CHARGE] (MULLIKEN)
  -5.1514348342607263E-014
[GTO] (AU)
   1
   s   1
  0.226738562E+05  0.100000000E+01
   s   1
  0.337906274E+04  0.100000000E+01
   s   1
  0.761871101E+03  0.100000000E+01
   s   1
  0.212163961E+03  0.100000000E+01
   s   1
  0.673579149E+02  0.100000000E+01
   s   1
  0.234189214E+02  0.100000000E+01
   s   1
  0.873881575E+01  0.100000000E+01
   s   1
  0.347502718E+01  0.100000000E+01
   s   1
  0.145504829E+01  0.100000000E+01
   s   1
  0.609832230E+00  0.100000000E+01
   s   1
  0.258201372E+00  0.100000000E+01
   s   1
  0.104384352E+00  0.100000000E+01
   s   1
  0.425118540E-01  0.100000000E+01
   s   1
  0.148786980E-01  0.100000000E+01
   p   1
  0.337101840E+02  0.100000000E+01
   p   1
  0.805764950E+01  0.100000000E+01
   p   1
  0.283647140E+01  0.100000000E+01
   p   1
  0.109996570E+01  0.100000000E+01
   p   1
  0.443396400E+00  0.100000000E+01
   p   1
  0.182226400E+00  0.100000000E+01
   p   1
  0.757241000E-01  0.100000000E+01
   p   1
  0.316854000E-01  0.100000000E+01
   p   1
  0.110899000E-01  0.100000000E+01
   d   1
  0.140000000E+01  0.100000000E+01
   d   1
  0.490000000E+00  0.100000000E+01
   d   1
  0.171500000E+00  0.100000000E+01
   d   1
  0.600250000E-01  0.100000000E+01
 
[MO]
Sym=     1a  
Ene=     0.0000
Spin= Alpha
Occup=    1.99687
   1         0.00005329
   2         0.00041794
   3         0.00222538
   4         0.00955936
   5         0.03482501
   6         0.10604723
   7         0.24572565
   8         0.38658338
   9         0.31239902
  10         0.06550661
  11        -0.00469520
  12        -0.00593658
  13        -0.00288422
  14         0.00009267
  15        -0.00000000
  16        -0.00000000
  17         0.00000000
  18         0.00000000
  19         0.00000000
  20        -0.00000000
  21        -0.00000000
  22        -0.00000000
  23        -0.00000000
  24        -0.00000000
  25        -0.00000000
  26        -0.00000000
  27        -0.00000000
  28        -0.00000000
  29         0.00000000
  30         0.00000000
  31         0.00000000
  32         0.00000000
  33         0.00000000
  34         0.00000000
  35         0.00000000
  36         0.00000000
  37         0.00000000
  38         0.00000000
  39        -0.00000000
  40        -0.00000000
  41        -0.00000000
  42        -0.00000000
  43         0.00000000
  44        -0.00000000
  45        -0.00000000
  46         0.00000000
  47        -0.00000000
  48        -0.00000000
  49         0.00000000
  50        -0.00000000
  51        -0.00000000
  52        -0.00000000
  53         0.00000000
  54        -0.00000000
  55        -0.00000000
  56        -0.00000000
  57        -0.00000000
  58        -0.00000000
  59         0.00000000
  60        -0.00000000
  61        -0.00000000
Sym=     2a  
Ene=     0.0000
Spin= Alpha
Occup=    1.80733
   1        -0.00000937
   2        -0.00007349
   3        -0.00039174
   4        -0.00169035
   5        -0.00623383
   6        -0.01961993
   7        -0.04887794
   8        -0.09293459
   9        -0.13028310
  10        -0.06147435
  11         0.28956108
  12         0.62418364
  13         0.23206683
  14        -0.00189304
  15        -0.00000000
  16        -0.00000000
  17        -0.00000000
  18        -0.00000000
  19         0.00000000
  20        -0.00000000
  21         0.00000000
  22         0.00000000
  23         0.00000000
  24         0.00000000
  25         0.00000001
  26         0.00000000
  27         0.00000000
  28         0.00000001
  29         0.00000000
  30         0.00000000
  31         0.00000001
  32         0.00000000
  33        -0.00000000
  34        -0.00000002
  35        -0.00000000
  36        -0.00000000
  37        -0.00000001
  38        -0.00000000
  39         0.00000000
  40         0.00000000
  41        -0.00000000
  42        -0.00000000
  43         0.00000000
  44        -0.00000000
  45        -0.00000000
  46        -0.00000000
  47        -0.00000000
  48         0.00000000
  49        -0.00000000
  50        -0.00000000
  51        -0.00000000
  52         0.00000000
  53        -0.00000000
  54         0.00000000
  55         0.00000000
  56         0.00000000
  57         0.00000000
  58        -0.00000000
  59         0.00000000
  60         0.00000000
  61         0.00000000
Sym=     3a  
Ene=     0.0000
Spin= Alpha
Occup=    0.00063
   1         0.00000000
   2        -0.00000000
   3         0.00000000
   4        -0.00000002
   5         0.00000009
   6        -0.00000043
   7         0.00000100
   8        -0.00000146
   9         0.00000120
  10        -0.00000007
  11        -0.00000082
  12         0.00000057
  13         0.00000001
  14        -0.00000010
  15        -0.00176305
  16         0.07935210
  17        -0.00018759
  18        -0.01294218
  19         0.58250757
  20        -0.00137704
  21        -0.01004720
  22         0.45220883
  23        -0.00106902
  24        -0.00036809
  25         0.01656706
  26        -0.00003916
  27         0.00094685
  28        -0.04261632
  29         0.00010074
  30         0.00235141
  31        -0.10583313
  32         0.00025019
  33         0.00113726
  34        -0.05118633
  35         0.00012100
  36         0.00005229
  37        -0.00235358
  38         0.00000556
  39         0.00000146
  40        -0.00006551
  41         0.00000015
  42         0.00000000
  43         0.00000000
  44        -0.00000000
  45         0.00000000
  46        -0.00000000
  47        -0.00000000
  48         0.00000000
  49        -0.00000000
  50        -0.00000000
  51         0.00000000
  52        -0.00000000
  53         0.00000000
  54        -0.00000000
  55        -0.00000000
  56         0.00000000
  57         0.00000000
  58        -0.00000000
  59         0.00000000
  60         0.00000000
  61        -0.00000000
Sym=     4a  
Ene=     0.0000
Spin= Alpha
Occup=    0.00063
   1         0.00000000
   2        -0.00000000
   3         0.00000000
   4        -0.00000000
   5         0.00000001
   6        -0.00000005
   7         0.00000012
   8        -0.00000014
   9         0.00000005
  10         0.00000012
  11        -0.00000021
  12         0.00000014
  13        -0.00000003
  14        -0.00000001
  15         0.07922617
  16         0.00177082
  17         0.00446962
  18         0.58158314
  19         0.01299921
  20         0.03281057
  21         0.45149119
  22         0.01009147
  23         0.02547132
  24         0.01654077
  25         0.00036971
  26         0.00093316
  27        -0.04254869
  28        -0.00095102
  29        -0.00240042
  30        -0.10566518
  31        -0.00236177
  32        -0.00596121
  33        -0.05110510
  34        -0.00114227
  35        -0.00288314
  36        -0.00234984
  37        -0.00005252
  38        -0.00013257
  39        -0.00006541
  40        -0.00000146
  41        -0.00000369
  42         0.00000000
  43        -0.00000000
  44        -0.00000000
  45        -0.00000000
  46        -0.00000000
  47        -0.00000000
  48        -0.00000000
  49         0.00000000
  50         0.00000000
  51         0.00000000
  52        -0.00000000
  53        -0.00000000
  54         0.00000000
  55         0.00000000
  56         0.00000000
  57         0.00000000
  58         0.00000000
  59        -0.00000000
  60        -0.00000000
  61        -0.00000000
Sym=     5a  
Ene=     0.0000
Spin= Alpha
Occup=    0.00063
   1        -0.00000000
   2        -0.00000000
   3        -0.00000000
   4        -0.00000000
   5        -0.00000000
   6        -0.00000002
   7         0.00000010
   8        -0.00000031
   9         0.00000057
  10        -0.00000066
  11         0.00000051
  12        -0.00000030
  13         0.00000013
  14        -0.00000002
  15        -0.00447269
  16         0.00008796
  17         0.07924574
  18        -0.03283311
  19         0.00064571
  20         0.58172677
  21        -0.02548880
  22         0.00050127
  23         0.45160271
  24        -0.00093381
  25         0.00001836
  26         0.01654479
  27         0.00240208
  28        -0.00004724
  29        -0.04255913
  30         0.00596529
  31        -0.00011732
  32        -0.10569128
  33         0.00288513
  34        -0.00005674
  35        -0.05111771
  36         0.00013266
  37        -0.00000261
  38        -0.00235041
  39         0.00000369
  40        -0.00000007
  41        -0.00006545
  42        -0.00000000
  43        -0.00000000
  44        -0.00000000
  45         0.00000000
  46         0.00000000
  47        -0.00000000
  48         0.00000000
  49         0.00000000
  50        -0.00000000
  51        -0.00000000
  52        -0.00000000
  53         0.00000000
  54         0.00000000
  55        -0.00000000
  56        -0.00000000
  57         0.00000000
  58        -0.00000000
  59        -0.00000000
  60         0.00000000
  61         0.00000000
Sym=     6a  
Ene=     0.0000
Spin= Alpha
Occup=    0.00125
   1         0.00008491
   2         0.00069344
   3         0.00353469
   4         0.01700092
   5         0.06841149
   6         0.34153166
   7         0.74094712
   8        -0.19356215
   9        -0.79272620
  10        -0.18132666
  11         0.07972140
  12         0.19346742
  13         0.07005608
  14        -0.00020683
  15        -0.00000000
  16         0.00000000
  17         0.00000000
  18        -0.00000000
  19         0.00000001
  20         0.00000000
  21         0.00000000
  22         0.00000002
  23         0.00000000
  24         0.00000000
  25         0.00000002
  26         0.00000000
  27         0.00000000
  28         0.00000006
  29         0.00000001
  30         0.00000001
  31         0.00000012
  32         0.00000002
  33         0.00000000
  34         0.00000005
  35         0.00000001
  36         0.00000000
  37         0.00000000
  38        -0.00000000
  39        -0.00000000
  40         0.00000000
  41         0.00000000
  42        -0.00000000
  43         0.00000000
  44        -0.00000000
  45        -0.00000000
  46        -0.00000000
  47         0.00000000
  48        -0.00000000
  49         0.00000000
  50         0.00000000
  51         0.00000000
  52        -0.00000000
  53        -0.00000000
  54         0.00000000
  55        -0.00000000
  56         0.00000000
  57         0.00000000
  58         0.00000000
  59        -0.00000000
  60         0.00000000
  61        -0.00000000
Sym=     7a  
Ene=     0.0000
Spin= Alpha
Occup=    0.06422
   1         0.00000000
   2        -0.00000000
   3         0.00000000
   4        -0.00000002
   5         0.00000007
   6        -0.00000035
   7         0.00000080
   8        -0.00000139
   9         0.00000087
  10         0.00000030
  11        -0.00000050
  12         0.00000071
  13        -0.00000058
  14        -0.00000009
  15        -0.00002137
  16         0.00114680
  17        -0.00000223
  18        -0.00013557
  19         0.00727469
  20        -0.00001412
  21        -0.00038638
  22         0.02073238
  23        -0.00004025
  24        -0.00093437
  25         0.05013687
  26        -0.00009734
  27        -0.00417796
  28         0.22418237
  29        -0.00043525
  30        -0.01005772
  31         0.53968092
  32        -0.00104780
  33        -0.00558722
  34         0.29980090
  35        -0.00058207
  36        -0.00010947
  37         0.00587408
  38        -0.00001140
  39        -0.00003885
  40         0.00208473
  41        -0.00000405
  42         0.00000000
  43        -0.00000000
  44         0.00000000
  45         0.00000000
  46        -0.00000000
  47         0.00000000
  48         0.00000000
  49        -0.00000000
  50         0.00000001
  51         0.00000000
  52         0.00000000
  53        -0.00000000
  54         0.00000000
  55         0.00000000
  56        -0.00000000
  57        -0.00000000
  58        -0.00000000
  59         0.00000000
  60        -0.00000000
  61        -0.00000000
Sym=     8a  
Ene=     0.0000
Spin= Alpha
Occup=    0.06422
   1         0.00000000
   2        -0.00000000
   3         0.00000000
   4        -0.00000000
   5         0.00000001
   6        -0.00000004
   7         0.00000009
   8        -0.00000012
   9         0.00000002
  10         0.00000015
  11        -0.00000020
  12         0.00000016
  13        -0.00000008
  14        -0.00000001
  15         0.00114525
  16         0.00002146
  17         0.00005949
  18         0.00726489
  19         0.00013612
  20         0.00037738
  21         0.02070448
  22         0.00038795
  23         0.00107550
  24         0.05006939
  25         0.00093816
  26         0.00260086
  27         0.22388063
  28         0.00419491
  29         0.01162953
  30         0.53895453
  31         0.01009854
  32         0.02799611
  33         0.29939738
  34         0.00560989
  35         0.01555226
  36         0.00586618
  37         0.00010992
  38         0.00030472
  39         0.00208193
  40         0.00003901
  41         0.00010815
  42         0.00000000
  43         0.00000000
  44        -0.00000000
  45        -0.00000000
  46        -0.00000000
  47        -0.00000000
  48        -0.00000000
  49        -0.00000000
  50         0.00000000
  51        -0.00000001
  52         0.00000000
  53         0.00000000
  54         0.00000000
  55        -0.00000000
  56        -0.00000000
  57         0.00000000
  58         0.00000000
  59         0.00000000
  60        -0.00000000
  61         0.00000000
Sym=     9a  
Ene=     0.0000
Spin= Alpha
Occup=    0.06422
   1        -0.00000000
   2        -0.00000000
   3        -0.00000000
   4        -0.00000000
   5        -0.00000000
   6        -0.00000002
   7         0.00000009
   8        -0.00000031
   9         0.00000049
  10        -0.00000057
  11         0.00000061
  12        -0.00000035
  13         0.00000008
  14        -0.00000005
  15        -0.00005952
  16         0.00000111
  17         0.00114546
  18        -0.00037757
  19         0.00000707
  20         0.00726614
  21        -0.00107606
  22         0.00002015
  23         0.02070811
  24        -0.00260223
  25         0.00004873
  26         0.05007798
  27        -0.01163563
  28         0.00021790
  29         0.22391950
  30        -0.02801080
  31         0.00052455
  32         0.53904811
  33        -0.01556042
  34         0.00029139
  35         0.29944942
  36        -0.00030488
  37         0.00000571
  38         0.00586719
  39        -0.00010820
  40         0.00000203
  41         0.00208230
  42         0.00000000
  43        -0.00000000
  44        -0.00000000
  45         0.00000000
  46         0.00000000
  47        -0.00000000
  48         0.00000000
  49        -0.00000001
  50         0.00000000
  51         0.00000000
  52         0.00000000
  53        -0.00000000
  54        -0.00000000
  55         0.00000000
  56         0.00000000
  57         0.00000000
  58        -0.00000000
  59         0.00000000
  60         0.00000000
  61        -0.00000000
Sym=    10a  
Ene=     0.0275
Spin= Alpha
Occup=    0.00000
   1         0.00000000
   2         0.00000000
   3         0.00000000
   4         0.00000000
   5         0.00000000
   6         0.00000000
   7         0.00000000
   8         0.00000000
   9         0.00000000
  10        -0.00000004
  11         0.00000004
  12        -0.00000001
  13         0.00000016
  14        -0.00000025
  15        -0.00005637
  16        -0.00012432
  17         0.00000785
  18        -0.00013451
  19        -0.00029665
  20         0.00001873
  21        -0.00254824
  22        -0.00561989
  23         0.00035489
  24         0.00285484
  25         0.00629608
  26        -0.00039760
  27        -0.01093780
  28        -0.02412224
  29         0.00152332
  30         0.04981457
  31         0.10986107
  32        -0.00693771
  33        -0.08006067
  34        -0.17656585
  35         0.01115010
  36         0.27497265
  37         0.60642483
  38        -0.03829562
  39        -0.55864090
  40        -1.23202694
  41         0.07780229
  42        -0.00000000
  43         0.00000000
  44         0.00000000
  45        -0.00000000
  46         0.00000000
  47         0.00000000
  48        -0.00000000
  49        -0.00000000
  50         0.00000000
  51        -0.00000000
  52        -0.00000000
  53         0.00000000
  54         0.00000000
  55        -0.00000000
  56         0.00000000
  57         0.00000000
  58        -0.00000000
  59        -0.00000000
  60         0.00000000
  61        -0.00000000
Sym=    11a  
Ene=     0.0275
Spin= Alpha
Occup=    0.00000
   1        -0.00000000
   2        -0.00000000
   3        -0.00000000
   4        -0.00000000
   5        -0.00000000
   6        -0.00000000
   7        -0.00000000
   8        -0.00000000
   9         0.00000000
  10         0.00000002
  11        -0.00000002
  12         0.00000002
  13        -0.00000011
  14         0.00000015
  15        -0.00012299
  16         0.00005691
  17         0.00001813
  18        -0.00029348
  19         0.00013581
  20         0.00004327
  21        -0.00555981
  22         0.00257277
  23         0.00081974
  24         0.00622877
  25        -0.00288232
  26        -0.00091837
  27        -0.02386438
  28         0.01104308
  29         0.00351855
  30         0.10868669
  31        -0.05029402
  32        -0.01602471
  33        -0.17467842
  34         0.08083124
  35         0.02575450
  36         0.59994236
  37        -0.27761922
  38        -0.08845521
  39        -1.21885700
  40         0.56401773
  41         0.17970768
  42         0.00000000
  43         0.00000000
  44        -0.00000000
  45         0.00000000
  46         0.00000000
  47        -0.00000000
  48        -0.00000000
  49         0.00000000
  50        -0.00000000
  51        -0.00000000
  52         0.00000000
  53         0.00000000
  54        -0.00000000
  55         0.00000000
  56         0.00000000
  57        -0.00000000
  58        -0.00000000
  59         0.00000000
  60        -0.00000000
  61        -0.00000000
Sym=    12a  
Ene=     0.0275
Spin= Alpha
Occup=    0.00000
   1         0.00000000
   2         0.00000000
   3         0.00000000
   4         0.00000000
   5         0.00000000
   6         0.00000000
   7         0.00000000
   8         0.00000000
   9        -0.00000000
  10        -0.00000001
  11         0.00000002
  12        -0.00000003
  13         0.00000012
  14        -0.00000014
  15        -0.00001976
  16         0.00000041
  17        -0.00013529
  18        -0.00004714
  19         0.00000099
  20        -0.00032284
  21        -0.00089307
  22         0.00001872
  23        -0.00611594
  24         0.00100052
  25        -0.00002098
  26         0.00685180
  27        -0.00383331
  28         0.00008037
  29        -0.02625144
  30         0.01745822
  31        -0.00036604
  32         0.11955817
  33        -0.02805839
  34         0.00058829
  35        -0.19215077
  36         0.09636803
  37        -0.00202053
  38         0.65995210
  39        -0.19578355
  40         0.00410495
  41        -1.34077412
  42         0.00000000
  43         0.00000000
  44         0.00000000
  45         0.00000000
  46         0.00000000
  47        -0.00000000
  48        -0.00000000
  49        -0.00000000
  50        -0.00000000
  51        -0.00000000
  52         0.00000000
  53         0.00000000
  54         0.00000000
  55         0.00000000
  56         0.00000000
  57        -0.00000000
  58        -0.00000000
  59        -0.00000000
  60        -0.00000000
  61        -0.00000000
Sym=    13a  
Ene=     0.0386
Spin= Alpha
Occup=    0.00000
   1         0.00000064
   2         0.00000161
   3         0.00003504
   4         0.00000570
   5         0.00071335
   6        -0.00012420
   7         0.01047502
   8        -0.00784752
   9         0.03437939
  10        -0.17745842
  11         0.28121950
  12        -0.64929251
  13         1.83701322
  14        -1.93600542
  15        -0.00000000
  16        -0.00000000
  17         0.00000000
  18        -0.00000000
  19        -0.00000001
  20         0.00000000
  21        -0.00000000
  22        -0.00000003
  23         0.00000000
  24        -0.00000001
  25        -0.00000005
  26         0.00000000
  27        -0.00000001
  28        -0.00000005
  29         0.00000000
  30        -0.00000000
  31        -0.00000009
  32        -0.00000002
  33        -0.00000000
  34         0.00000003
  35         0.00000002
  36         0.00000001
  37        -0.00000022
  38        -0.00000010
  39        -0.00000001
  40         0.00000027
  41         0.00000013
  42        -0.00000000
  43         0.00000000
  44        -0.00000000
  45        -0.00000000
  46        -0.00000000
  47         0.00000000
  48        -0.00000000
  49         0.00000000
  50         0.00000000
  51         0.00000000
  52        -0.00000000
  53        -0.00000000
  54         0.00000000
  55        -0.00000000
  56        -0.00000000
  57         0.00000000
  58        -0.00000000
  59         0.00000000
  60         0.00000000
  61         0.00000000
Sym=    14a  
Ene=     0.1352
Spin= Alpha
Occup=    0.00000
   1         0.00000000
   2         0.00000000
   3         0.00000000
   4         0.00000000
   5        -0.00000000
   6         0.00000000
   7        -0.00000000
   8         0.00000002
   9        -0.00000005
  10         0.00000000
  11        -0.00000017
  12         0.00000079
  13        -0.00000098
  14         0.00000037
  15        -0.00000002
  16        -0.00000580
  17        -0.00000000
  18        -0.00002471
  19        -0.00598614
  20        -0.00000120
  21        -0.00000298
  22        -0.00072225
  23        -0.00000015
  24        -0.00024203
  25        -0.05862270
  26        -0.00001179
  27         0.00069572
  28         0.16851238
  29         0.00003390
  30        -0.00139665
  31        -0.33828784
  32        -0.00006806
  33         0.00663002
  34         1.60588530
  35         0.00032309
  36        -0.01059531
  37        -2.56633663
  38        -0.00051633
  39         0.00418579
  40         1.01385884
  41         0.00020398
  42        -0.00000000
  43         0.00000000
  44         0.00000000
  45        -0.00000000
  46         0.00000000
  47         0.00000000
  48        -0.00000000
  49        -0.00000000
  50         0.00000000
  51        -0.00000000
  52        -0.00000000
  53         0.00000000
  54         0.00000000
  55        -0.00000000
  56         0.00000000
  57         0.00000000
  58        -0.00000000
  59        -0.00000000
  60         0.00000001
  61        -0.00000000
Sym=    15a  
Ene=     0.1352
Spin= Alpha
Occup=    0.00000
   1         0.00000000
   2         0.00000000
   3         0.00000000
   4         0.00000000
   5         0.00000000
   6         0.00000000
   7         0.00000000
   8         0.00000000
   9         0.00000000
  10        -0.00000001
  11         0.00000000
  12         0.00000002
  13        -0.00000003
  14         0.00000000
  15        -0.00000580
  16         0.00000002
  17         0.00000009
  18        -0.00598544
  19         0.00002469
  20         0.00009134
  21        -0.00072217
  22         0.00000298
  23         0.00001102
  24        -0.05861588
  25         0.00024182
  26         0.00089453
  27         0.16849276
  28        -0.00069512
  29        -0.00257136
  30        -0.33824847
  31         0.00139545
  32         0.00516200
  33         1.60569839
  34        -0.00662431
  35        -0.02450451
  36        -2.56603793
  37         0.01058620
  38         0.03916022
  39         1.01374083
  40        -0.00418219
  41        -0.01547067
  42        -0.00000000
  43         0.00000000
  44        -0.00000000
  45         0.00000000
  46         0.00000000
  47         0.00000000
  48        -0.00000000
  49         0.00000000
  50        -0.00000000
  51        -0.00000000
  52        -0.00000000
  53         0.00000000
  54        -0.00000000
  55         0.00000000
  56         0.00000000
  57         0.00000000
  58        -0.00000000
  59         0.00000000
  60        -0.00000000
  61        -0.00000001
Sym=    16a  
Ene=     0.1352
Spin= Alpha
Occup=    0.00000
   1         0.00000000
   2         0.00000000
   3        -0.00000000
   4         0.00000000
   5        -0.00000000
   6         0.00000000
   7        -0.00000000
   8         0.00000001
   9        -0.00000002
  10         0.00000003
  11        -0.00000005
  12         0.00000014
  13        -0.00000018
  14         0.00000010
  15        -0.00000009
  16         0.00000000
  17        -0.00000580
  18        -0.00009134
  19         0.00000158
  20        -0.00598549
  21        -0.00001102
  22         0.00000019
  23        -0.00072217
  24        -0.00089448
  25         0.00001549
  26        -0.05861637
  27         0.00257120
  28        -0.00004452
  29         0.16849420
  30        -0.00516167
  31         0.00008936
  32        -0.33825135
  33         0.02450296
  34        -0.00042422
  35         1.60571206
  36        -0.03915775
  37         0.00067794
  38        -2.56605972
  39         0.01546968
  40        -0.00026783
  41         1.01374940
  42         0.00000000
  43         0.00000000
  44         0.00000000
  45         0.00000000
  46         0.00000000
  47        -0.00000000
  48        -0.00000000
  49        -0.00000000
  50        -0.00000000
  51        -0.00000000
  52         0.00000000
  53         0.00000000
  54         0.00000000
  55         0.00000000
  56         0.00000000
  57        -0.00000000
  58        -0.00000000
  59        -0.00000001
  60        -0.00000000
  61        -0.00000000
Sym=    17a  
Ene=     0.1841
Spin= Alpha
Occup=    0.00000
   1         0.00000000
   2         0.00000000
   3        -0.00000000
   4         0.00000000
   5        -0.00000000
   6         0.00000000
   7        -0.00000000
   8         0.00000000
   9        -0.00000000
  10         0.00000000
  11        -0.00000000
  12         0.00000000
  13        -0.00000000
  14         0.00000000
  15         0.00000000
  16         0.00000000
  17         0.00000000
  18         0.00000000
  19         0.00000000
  20        -0.00000000
  21         0.00000000
  22         0.00000000
  23         0.00000000
  24         0.00000000
  25        -0.00000000
  26        -0.00000000
  27         0.00000000
  28         0.00000000
  29         0.00000000
  30        -0.00000000
  31        -0.00000001
  32        -0.00000000
  33         0.00000000
  34         0.00000001
  35         0.00000000
  36        -0.00000000
  37        -0.00000002
  38        -0.00000000
  39         0.00000000
  40         0.00000001
  41         0.00000000
  42        -0.00059341
  43        -0.00093680
  44        -0.00087436
  45         0.01021158
  46        -0.00339927
  47         0.00375545
  48         0.00592859
  49         0.00553347
  50        -0.06462458
  51         0.02151250
  52        -0.01149248
  53        -0.01814276
  54        -0.01693360
  55         0.19776522
  56        -0.06583292
  57         0.06076606
  58         0.09592913
  59         0.08953578
  60        -1.04567605
  61         0.34808902
Sym=    18a  
Ene=     0.1841
Spin= Alpha
Occup=    0.00000
   1        -0.00000000
   2        -0.00000000
   3        -0.00000000
   4        -0.00000000
   5        -0.00000000
   6        -0.00000000
   7        -0.00000000
   8        -0.00000000
   9         0.00000000
  10        -0.00000000
  11         0.00000000
  12        -0.00000000
  13         0.00000000
  14        -0.00000000
  15        -0.00000000
  16         0.00000000
  17        -0.00000000
  18        -0.00000000
  19         0.00000000
  20        -0.00000000
  21        -0.00000000
  22         0.00000000
  23        -0.00000000
  24         0.00000000
  25         0.00000000
  26         0.00000000
  27        -0.00000000
  28         0.00000000
  29        -0.00000000
  30         0.00000001
  31        -0.00000000
  32         0.00000000
  33        -0.00000001
  34         0.00000000
  35        -0.00000000
  36         0.00000002
  37        -0.00000000
  38         0.00000000
  39        -0.00000001
  40         0.00000000
  41        -0.00000000
  42         0.00020915
  43        -0.00032240
  44         0.00064966
  45         0.00345448
  46         0.01026267
  47        -0.00132359
  48         0.00204034
  49        -0.00411139
  50        -0.02186191
  51        -0.06494793
  52         0.00405049
  53        -0.00624389
  54         0.01258176
  55         0.06690219
  56         0.19875473
  57        -0.02141679
  58         0.03301435
  59        -0.06652556
  60        -0.35374277
  61        -1.05090804
Sym=    19a  
Ene=     0.1841
Spin= Alpha
Occup=    0.00000
   1        -0.00000000
   2        -0.00000000
   3        -0.00000000
   4         0.00000000
   5        -0.00000000
   6         0.00000000
   7        -0.00000000
   8         0.00000000
   9        -0.00000000
  10         0.00000000
  11        -0.00000000
  12         0.00000000
  13        -0.00000000
  14         0.00000000
  15        -0.00000000
  16        -0.00000000
  17         0.00000000
  18        -0.00000000
  19        -0.00000000
  20        -0.00000000
  21        -0.00000000
  22        -0.00000000
  23         0.00000000
  24        -0.00000000
  25         0.00000000
  26        -0.00000000
  27         0.00000000
  28        -0.00000000
  29         0.00000000
  30        -0.00000000
  31         0.00000000
  32        -0.00000000
  33         0.00000000
  34        -0.00000000
  35         0.00000000
  36        -0.00000000
  37         0.00000000
  38        -0.00000001
  39         0.00000000
  40        -0.00000000
  41         0.00000000
  42        -0.00154729
  43        -0.01067343
  44        -0.00056766
  45        -0.00108525
  46         0.00009746
  47         0.00979210
  48         0.06754742
  49         0.00359248
  50         0.00686804
  51        -0.00061679
  52        -0.02996596
  53        -0.20670973
  54        -0.01099375
  55        -0.02101770
  56         0.00188752
  57         0.15844384
  58         1.09296978
  59         0.05812905
  60         0.11113029
  61        -0.00998020
Sym=    20a  
Ene=     0.1841
Spin= Alpha
Occup=    0.00000
   1         0.00000000
   2         0.00000000
   3         0.00000000
   4         0.00000000
   5         0.00000000
   6         0.00000000
   7         0.00000000
   8         0.00000000
   9        -0.00000000
  10         0.00000000
  11        -0.00000000
  12         0.00000001
  13        -0.00000001
  14         0.00000000
  15        -0.00000000
  16        -0.00000000
  17         0.00000000
  18         0.00000000
  19        -0.00000000
  20        -0.00000000
  21        -0.00000000
  22        -0.00000000
  23         0.00000000
  24         0.00000000
  25        -0.00000000
  26        -0.00000000
  27        -0.00000000
  28        -0.00000000
  29         0.00000000
  30         0.00000000
  31         0.00000000
  32        -0.00000000
  33        -0.00000000
  34        -0.00000001
  35         0.00000001
  36         0.00000000
  37         0.00000001
  38        -0.00000002
  39        -0.00000000
  40        -0.00000000
  41         0.00000001
  42        -0.00774577
  43         0.00158716
  44        -0.00735612
  45        -0.00063866
  46         0.00088836
  47         0.04901955
  48        -0.01004442
  49         0.04655368
  50         0.00404182
  51        -0.00562202
  52        -0.15001046
  53         0.03073809
  54        -0.14246434
  55        -0.01236883
  56         0.01720459
  57         0.79317454
  58        -0.16252649
  59         0.75327472
  60         0.06539973
  61        -0.09096863
Sym=    21a  
Ene=     0.1841
Spin= Alpha
Occup=    0.00000
   1        -0.00000000
   2        -0.00000000
   3        -0.00000000
   4        -0.00000000
   5        -0.00000000
   6        -0.00000000
   7        -0.00000000
   8        -0.00000000
   9         0.00000000
  10        -0.00000000
  11         0.00000000
  12        -0.00000001
  13         0.00000001
  14        -0.00000000
  15        -0.00000000
  16         0.00000000
  17         0.00000000
  18        -0.00000000
  19        -0.00000000
  20         0.00000000
  21        -0.00000000
  22         0.00000000
  23         0.00000000
  24        -0.00000000
  25        -0.00000000
  26         0.00000000
  27         0.00000000
  28         0.00000000
  29         0.00000000
  30        -0.00000000
  31        -0.00000000
  32        -0.00000000
  33         0.00000000
  34         0.00000001
  35         0.00000001
  36        -0.00000000
  37        -0.00000001
  38        -0.00000001
  39         0.00000000
  40         0.00000000
  41         0.00000000
  42         0.00741881
  43        -0.00063482
  44        -0.00788697
  45        -0.00017374
  46         0.00038662
  47        -0.04695038
  48         0.00401748
  49         0.04991314
  50         0.00109952
  51        -0.00244673
  52         0.14367833
  53        -0.01229437
  54        -0.15274503
  55        -0.00336476
  56         0.00748751
  57        -0.75969364
  58         0.06500599
  59         0.80763348
  60         0.01779102
  61        -0.03958994
Sym=    22a  
Ene=     0.2547
Spin= Alpha
Occup=    0.00000
   1         0.00000079
   2         0.00002272
   3        -0.00000456
   4         0.00069143
   5        -0.00059636
   6         0.01161558
   7        -0.00773786
   8         0.11581958
   9        -0.28724931
  10         0.46457999
  11        -1.77656205
  12         4.45970658
  13        -4.43831210
  14         1.40443120
  15         0.00000000
  16         0.00000000
  17        -0.00000000
  18         0.00000000
  19         0.00000001
  20         0.00000000
  21         0.00000000
  22         0.00000002
  23        -0.00000000
  24         0.00000001
  25         0.00000008
  26         0.00000000
  27        -0.00000000
  28        -0.00000008
  29        -0.00000002
  30         0.00000002
  31         0.00000035
  32         0.00000004
  33        -0.00000006
  34        -0.00000116
  35        -0.00000015
  36         0.00000005
  37         0.00000096
  38         0.00000012
  39        -0.00000002
  40        -0.00000029
  41        -0.00000004
  42        -0.00000000
  43         0.00000000
  44        -0.00000000
  45        -0.00000000
  46        -0.00000000
  47        -0.00000000
  48        -0.00000000
  49         0.00000000
  50        -0.00000000
  51        -0.00000000
  52         0.00000000
  53         0.00000000
  54        -0.00000000
  55         0.00000000
  56        -0.00000000
  57        -0.00000000
  58        -0.00000000
  59         0.00000000
  60        -0.00000000
  61         0.00000000
Sym=    23a  
Ene=     0.5116
Spin= Alpha
Occup=    0.00000
   1         0.00000000
   2        -0.00000000
   3         0.00000000
   4        -0.00000000
   5         0.00000000
   6        -0.00000000
   7         0.00000001
   8        -0.00000005
   9         0.00000020
  10        -0.00000073
  11         0.00000163
  12        -0.00000217
  13         0.00000158
  14        -0.00000047
  15         0.00012044
  16        -0.00195323
  17         0.00001653
  18         0.00006917
  19        -0.00112172
  20         0.00000949
  21         0.00552931
  22        -0.08967391
  23         0.00075885
  24        -0.00839092
  25         0.13608332
  26        -0.00115158
  27         0.03477509
  28        -0.56398005
  29         0.00477258
  30        -0.15698927
  31         2.54604166
  32        -0.02154541
  33         0.21820106
  34        -3.53877036
  35         0.02994620
  36        -0.11725474
  37         1.90162958
  38        -0.01609219
  39         0.03114497
  40        -0.50510701
  41         0.00427438
  42         0.00000000
  43        -0.00000000
  44         0.00000000
  45         0.00000000
  46        -0.00000000
  47        -0.00000000
  48         0.00000000
  49        -0.00000000
  50        -0.00000000
  51         0.00000000
  52         0.00000001
  53        -0.00000000
  54         0.00000000
  55         0.00000002
  56        -0.00000000
  57        -0.00000001
  58         0.00000000
  59        -0.00000000
  60        -0.00000001
  61         0.00000000
Sym=    24a  
Ene=     0.5116
Spin= Alpha
Occup=    0.00000
   1         0.00000000
   2        -0.00000000
   3         0.00000000
   4        -0.00000000
   5         0.00000000
   6        -0.00000000
   7         0.00000000
   8        -0.00000001
   9         0.00000004
  10        -0.00000012
  11         0.00000025
  12        -0.00000032
  13         0.00000023
  14        -0.00000007
  15        -0.00194229
  16        -0.00012151
  17        -0.00020648
  18        -0.00111544
  19        -0.00006978
  20        -0.00011858
  21        -0.08917162
  22        -0.00557855
  23        -0.00947947
  24         0.13532108
  25         0.00846565
  26         0.01438544
  27        -0.56082105
  28        -0.03508481
  29        -0.05961862
  30         2.53178064
  31         0.15838751
  32         0.26914337
  33        -3.51894882
  34        -0.22014448
  35        -0.37408523
  36         1.89097807
  37         0.11829908
  38         0.20102224
  39        -0.50227778
  40        -0.03142236
  41        -0.05339513
  42         0.00000000
  43         0.00000000
  44        -0.00000000
  45        -0.00000000
  46        -0.00000000
  47        -0.00000000
  48        -0.00000000
  49         0.00000000
  50         0.00000000
  51         0.00000000
  52         0.00000000
  53         0.00000000
  54        -0.00000000
  55        -0.00000000
  56        -0.00000002
  57        -0.00000000
  58        -0.00000000
  59         0.00000000
  60         0.00000000
  61         0.00000001
Sym=    25a  
Ene=     0.5116
Spin= Alpha
Occup=    0.00000
   1         0.00000000
   2        -0.00000000
   3         0.00000000
   4        -0.00000000
   5         0.00000000
   6        -0.00000000
   7         0.00000000
   8        -0.00000001
   9         0.00000003
  10        -0.00000003
  11        -0.00000003
  12         0.00000012
  13        -0.00000010
  14         0.00000001
  15        -0.00020710
  16         0.00000370
  17         0.00194601
  18        -0.00011894
  19         0.00000212
  20         0.00111758
  21        -0.00950828
  22         0.00016976
  23         0.08934273
  24         0.01442916
  25        -0.00025762
  26        -0.13558075
  27        -0.05979981
  28         0.00106769
  29         0.56189718
  30         0.26996135
  31        -0.00481999
  32        -2.53663871
  33        -0.37522214
  34         0.00669935
  35         3.52570100
  36         0.20163318
  37        -0.00360003
  38        -1.89460649
  39        -0.05355740
  40         0.00095623
  41         0.50324156
  42        -0.00000000
  43         0.00000000
  44         0.00000000
  45        -0.00000000
  46        -0.00000000
  47         0.00000000
  48        -0.00000000
  49        -0.00000000
  50         0.00000000
  51         0.00000000
  52        -0.00000000
  53         0.00000000
  54         0.00000002
  55        -0.00000000
  56        -0.00000000
  57         0.00000000
  58        -0.00000000
  59        -0.00000001
  60         0.00000000
  61         0.00000000
Sym=    26a  
Ene=     0.6030
Spin= Alpha
Occup=    0.00000
   1         0.00000000
   2         0.00000000
   3         0.00000000
   4         0.00000000
   5         0.00000000
   6         0.00000000
   7         0.00000000
   8         0.00000000
   9         0.00000000
  10        -0.00000000
  11         0.00000000
  12        -0.00000000
  13         0.00000000
  14        -0.00000000
  15         0.00000000
  16         0.00000000
  17        -0.00000000
  18         0.00000000
  19         0.00000000
  20        -0.00000000
  21         0.00000000
  22         0.00000000
  23        -0.00000000
  24        -0.00000000
  25        -0.00000000
  26         0.00000000
  27         0.00000001
  28         0.00000000
  29        -0.00000000
  30        -0.00000004
  31        -0.00000001
  32         0.00000001
  33         0.00000005
  34         0.00000002
  35        -0.00000002
  36        -0.00000003
  37        -0.00000001
  38         0.00000001
  39         0.00000001
  40         0.00000000
  41        -0.00000000
  42         0.00618358
  43         0.00297508
  44         0.01547635
  45         0.00367237
  46        -0.04547653
  47        -0.02030081
  48        -0.00976724
  49        -0.05080921
  50        -0.01205646
  51         0.14930044
  52         0.17717609
  53         0.08524398
  54         0.44343917
  55         0.10522322
  56        -1.30302492
  57        -0.09228567
  58        -0.04440101
  59        -0.23097405
  60        -0.05480759
  61         0.67870627
Sym=    27a  
Ene=     0.6030
Spin= Alpha
Occup=    0.00000
   1         0.00000000
   2         0.00000000
   3         0.00000000
   4         0.00000000
   5         0.00000000
   6         0.00000000
   7         0.00000000
   8         0.00000000
   9         0.00000000
  10        -0.00000000
  11         0.00000000
  12        -0.00000000
  13         0.00000000
  14        -0.00000000
  15         0.00000000
  16        -0.00000000
  17         0.00000000
  18         0.00000000
  19        -0.00000000
  20         0.00000000
  21         0.00000000
  22        -0.00000000
  23         0.00000000
  24        -0.00000000
  25         0.00000000
  26        -0.00000000
  27         0.00000000
  28        -0.00000001
  29         0.00000000
  30        -0.00000001
  31         0.00000003
  32        -0.00000001
  33         0.00000001
  34        -0.00000004
  35         0.00000001
  36        -0.00000001
  37         0.00000002
  38        -0.00000001
  39         0.00000000
  40        -0.00000001
  41         0.00000000
  42         0.01982585
  43        -0.00293024
  44        -0.00740730
  45        -0.04357964
  46        -0.00353592
  47        -0.06508869
  48         0.00962004
  49         0.02431831
  50         0.14307290
  51         0.01160851
  52         0.56806391
  53        -0.08395921
  54        -0.21223892
  55        -1.24867389
  56        -0.10131365
  57        -0.29588731
  58         0.04373181
  59         0.11054883
  60         0.65039647
  61         0.05277122
Sym=    28a  
Ene=     0.6030
Spin= Alpha
Occup=    0.00000
   1         0.00000000
   2         0.00000000
   3         0.00000000
   4         0.00000000
   5         0.00000000
   6         0.00000000
   7         0.00000000
   8         0.00000000
   9         0.00000000
  10        -0.00000000
  11         0.00000000
  12        -0.00000000
  13         0.00000000
  14        -0.00000000
  15        -0.00000000
  16         0.00000000
  17         0.00000000
  18         0.00000000
  19         0.00000000
  20         0.00000000
  21        -0.00000000
  22         0.00000000
  23         0.00000000
  24         0.00000000
  25        -0.00000000
  26        -0.00000000
  27        -0.00000000
  28         0.00000001
  29         0.00000000
  30         0.00000000
  31        -0.00000004
  32        -0.00000001
  33        -0.00000000
  34         0.00000004
  35         0.00000002
  36         0.00000000
  37        -0.00000002
  38        -0.00000001
  39        -0.00000000
  40         0.00000001
  41         0.00000000
  42         0.04012076
  43         0.01635837
  44        -0.01110548
  45         0.01869469
  46         0.00425579
  47        -0.13171733
  48        -0.05370487
  49         0.03645953
  50        -0.06137506
  51        -0.01397185
  52         1.14956772
  53         0.46871116
  54        -0.31820190
  55         0.53565304
  56         0.12193986
  57        -0.59877506
  58        -0.24413747
  59         0.16574174
  60        -0.27900547
  61        -0.06351478
Sym=    29a  
Ene=     0.6030
Spin= Alpha
Occup=    0.00000
   1         0.00000000
   2         0.00000000
   3         0.00000000
   4         0.00000000
   5         0.00000000
   6         0.00000000
   7         0.00000000
   8         0.00000000
   9         0.00000000
  10        -0.00000000
  11         0.00000000
  12        -0.00000000
  13        -0.00000000
  14        -0.00000000
  15        -0.00000000
  16         0.00000000
  17        -0.00000000
  18        -0.00000000
  19         0.00000000
  20        -0.00000000
  21        -0.00000000
  22         0.00000000
  23        -0.00000000
  24         0.00000000
  25         0.00000000
  26         0.00000000
  27        -0.00000000
  28         0.00000000
  29        -0.00000001
  30         0.00000001
  31        -0.00000000
  32         0.00000004
  33        -0.00000001
  34         0.00000000
  35        -0.00000005
  36         0.00000001
  37         0.00000000
  38         0.00000003
  39        -0.00000000
  40        -0.00000000
  41        -0.00000001
  42         0.00608321
  43         0.01712183
  44         0.04180992
  45        -0.00675846
  46         0.01563005
  47        -0.01997132
  48        -0.05621134
  49        -0.13726285
  50         0.02218816
  51        -0.05131378
  52         0.17430037
  53         0.49058647
  54         1.19796644
  55        -0.19364799
  56         0.44784284
  57        -0.09078779
  58        -0.25553166
  59        -0.62398449
  60         0.10086538
  61        -0.23326779
Sym=    30a  
Ene=     0.6030
Spin= Alpha
Occup=    0.00000
   1         0.00000000
   2         0.00000000
   3         0.00000000
   4         0.00000000
   5         0.00000000
   6         0.00000000
   7         0.00000000
   8        -0.00000000
   9         0.00000000
  10        -0.00000000
  11         0.00000000
  12        -0.00000000
  13         0.00000000
  14        -0.00000000
  15        -0.00000000
  16         0.00000000
  17        -0.00000000
  18        -0.00000000
  19         0.00000000
  20         0.00000000
  21        -0.00000000
  22         0.00000000
  23        -0.00000000
  24         0.00000000
  25        -0.00000000
  26         0.00000000
  27        -0.00000000
  28         0.00000000
  29        -0.00000000
  30         0.00000001
  31        -0.00000002
  32         0.00000001
  33        -0.00000001
  34         0.00000002
  35        -0.00000001
  36         0.00000001
  37        -0.00000001
  38         0.00000000
  39        -0.00000000
  40         0.00000000
  41        -0.00000000
  42         0.01703598
  43        -0.04230858
  44         0.01422745
  45         0.00776962
  46         0.00501784
  47        -0.05592948
  48         0.13889998
  49        -0.04670903
  50        -0.02550784
  51        -0.01647367
  52         0.48812654
  53        -1.21225457
  54         0.40765471
  55         0.22262056
  56         0.14377458
  57        -0.25425035
  58         0.63142674
  59        -0.21233501
  60        -0.11595632
  61        -0.07488783
Sym=    31a  
Ene=     1.0941
Spin= Alpha
Occup=    0.00000
   1        -0.00000794
   2         0.00000537
   3        -0.00049059
   4         0.00076347
   5        -0.01062914
   6         0.01608820
   7        -0.15715053
   8         0.25840196
   9        -0.95253877
  10         3.85314114
  11        -6.94587551
  12         6.04079794
  13        -2.73104592
  14         0.67597801
  15        -0.00000000
  16        -0.00000000
  17         0.00000000
  18        -0.00000000
  19        -0.00000000
  20         0.00000000
  21        -0.00000001
  22        -0.00000010
  23         0.00000000
  24         0.00000001
  25         0.00000009
  26         0.00000001
  27        -0.00000013
  28        -0.00000114
  29         0.00000002
  30         0.00000018
  31         0.00000186
  32         0.00000003
  33        -0.00000015
  34        -0.00000138
  35         0.00000002
  36         0.00000006
  37         0.00000062
  38        -0.00000000
  39        -0.00000002
  40        -0.00000016
  41         0.00000000
  42         0.00000000
  43        -0.00000000
  44         0.00000000
  45         0.00000000
  46         0.00000000
  47         0.00000000
  48         0.00000000
  49        -0.00000000
  50        -0.00000000
  51         0.00000000
  52         0.00000000
  53        -0.00000000
  54         0.00000000
  55         0.00000000
  56         0.00000000
  57         0.00000000
  58         0.00000000
  59        -0.00000000
  60        -0.00000000
  61        -0.00000000
Sym=    32a  
Ene=     1.6734
Spin= Alpha
Occup=    0.00000
   1         0.00000000
   2        -0.00000000
   3         0.00000000
   4        -0.00000000
   5         0.00000000
   6        -0.00000001
   7         0.00000006
   8        -0.00000010
   9         0.00000026
  10        -0.00000091
  11         0.00000153
  12        -0.00000117
  13         0.00000040
  14        -0.00000007
  15         0.00098040
  16        -0.00074099
  17         0.00015929
  18        -0.05300107
  19         0.04005878
  20        -0.00861149
  21         0.04645908
  22        -0.03511428
  23         0.00754857
  24        -0.75336822
  25         0.56940381
  26        -0.12240557
  27         2.53226700
  28        -1.91391467
  29         0.41143706
  30        -2.82954631
  31         2.13860158
  32        -0.45973833
  33         1.69723707
  34        -1.28279006
  35         0.27576327
  36        -0.75292698
  37         0.56907032
  38        -0.12233389
  39         0.19178038
  40        -0.14494968
  41         0.03116004
  42         0.00000000
  43         0.00000000
  44         0.00000000
  45         0.00000000
  46         0.00000000
  47        -0.00000002
  48        -0.00000000
  49        -0.00000000
  50        -0.00000003
  51        -0.00000003
  52         0.00000001
  53         0.00000000
  54         0.00000000
  55         0.00000002
  56         0.00000003
  57        -0.00000000
  58        -0.00000000
  59        -0.00000000
  60        -0.00000001
  61        -0.00000001
Sym=    33a  
Ene=     1.6734
Spin= Alpha
Occup=    0.00000
   1        -0.00000000
   2         0.00000000
   3        -0.00000000
   4         0.00000000
   5        -0.00000001
   6         0.00000002
   7        -0.00000010
   8         0.00000015
   9        -0.00000040
  10         0.00000148
  11        -0.00000256
  12         0.00000198
  13        -0.00000068
  14         0.00000011
  15         0.00073208
  16         0.00099325
  17         0.00011463
  18        -0.03957698
  19        -0.05369578
  20        -0.00619698
  21         0.03469194
  22         0.04706805
  23         0.00543208
  24        -0.56255541
  25        -0.76324302
  26        -0.08808523
  27         1.89089538
  28         2.56545878
  29         0.29607743
  30        -2.11287991
  31        -2.86663470
  32        -0.33083588
  33         1.26736152
  34         1.71948367
  35         0.19844416
  36        -0.56222592
  37        -0.76279600
  38        -0.08803364
  39         0.14320632
  40         0.19429415
  41         0.02242332
  42        -0.00000000
  43         0.00000000
  44         0.00000000
  45        -0.00000000
  46         0.00000000
  47         0.00000002
  48        -0.00000000
  49        -0.00000001
  50         0.00000003
  51        -0.00000003
  52        -0.00000002
  53         0.00000000
  54         0.00000001
  55        -0.00000003
  56         0.00000002
  57         0.00000001
  58        -0.00000000
  59        -0.00000000
  60         0.00000001
  61        -0.00000001
Sym=    34a  
Ene=     1.6734
Spin= Alpha
Occup=    0.00000
   1        -0.00000000
   2         0.00000000
   3        -0.00000000
   4         0.00000000
   5        -0.00000000
   6         0.00000001
   7        -0.00000001
   8         0.00000007
   9        -0.00000017
  10         0.00000019
  11        -0.00000007
  12        -0.00000002
  13         0.00000001
  14         0.00000001
  15        -0.00019622
  16         0.00000342
  17         0.00122357
  18         0.01060784
  19        -0.00018465
  20        -0.06614693
  21        -0.00929851
  22         0.00016186
  23         0.05798233
  24         0.15078211
  25        -0.00262465
  26        -0.94022621
  27        -0.50681798
  28         0.00882213
  29         3.16034549
  30         0.56631664
  31        -0.00985782
  32        -3.53135897
  33        -0.33969177
  34         0.00591298
  35         2.11820297
  36         0.15069380
  37        -0.00262311
  38        -0.93967553
  39        -0.03838369
  40         0.00066814
  41         0.23934768
  42         0.00000000
  43         0.00000000
  44         0.00000000
  45        -0.00000000
  46        -0.00000000
  47        -0.00000001
  48         0.00000000
  49        -0.00000004
  50         0.00000000
  51         0.00000001
  52         0.00000000
  53         0.00000000
  54         0.00000003
  55        -0.00000000
  56        -0.00000001
  57        -0.00000000
  58        -0.00000000
  59        -0.00000001
  60         0.00000000
  61         0.00000000
Sym=    35a  
Ene=     1.7498
Spin= Alpha
Occup=    0.00000
   1        -0.00000000
   2        -0.00000000
   3        -0.00000000
   4        -0.00000000
   5        -0.00000000
   6        -0.00000000
   7        -0.00000000
   8        -0.00000000
   9        -0.00000000
  10        -0.00000000
  11         0.00000000
  12        -0.00000000
  13         0.00000000
  14        -0.00000000
  15         0.00000000
  16        -0.00000000
  17        -0.00000000
  18        -0.00000000
  19         0.00000000
  20         0.00000000
  21         0.00000000
  22        -0.00000000
  23        -0.00000000
  24        -0.00000002
  25         0.00000002
  26         0.00000000
  27         0.00000007
  28        -0.00000007
  29        -0.00000001
  30        -0.00000007
  31         0.00000007
  32         0.00000001
  33         0.00000005
  34        -0.00000004
  35        -0.00000001
  36        -0.00000002
  37         0.00000002
  38         0.00000000
  39         0.00000001
  40        -0.00000000
  41        -0.00000000
  42        -0.00966517
  43        -0.00270381
  44         0.01767602
  45        -0.07524899
  46        -0.08588418
  47         0.12201007
  48         0.03413201
  49        -0.22313643
  50         0.94991916
  51         1.08417448
  52        -0.09063824
  53        -0.02535582
  54         0.16576249
  55        -0.70567127
  56        -0.80540620
  57         0.03144006
  58         0.00879528
  59        -0.05749871
  60         0.24477908
  61         0.27937455
Sym=    36a  
Ene=     1.7498
Spin= Alpha
Occup=    0.00000
   1        -0.00000000
   2         0.00000000
   3        -0.00000000
   4         0.00000000
   5        -0.00000000
   6         0.00000000
   7        -0.00000000
   8         0.00000000
   9        -0.00000000
  10         0.00000000
  11        -0.00000000
  12         0.00000000
  13        -0.00000000
  14         0.00000000
  15        -0.00000000
  16        -0.00000000
  17        -0.00000000
  18         0.00000000
  19         0.00000000
  20         0.00000000
  21        -0.00000000
  22        -0.00000000
  23        -0.00000000
  24         0.00000002
  25         0.00000002
  26         0.00000000
  27        -0.00000006
  28        -0.00000007
  29        -0.00000001
  30         0.00000006
  31         0.00000007
  32         0.00000001
  33        -0.00000004
  34        -0.00000004
  35        -0.00000001
  36         0.00000002
  37         0.00000002
  38         0.00000000
  39        -0.00000000
  40        -0.00000000
  41        -0.00000000
  42         0.00578422
  43         0.00055911
  44         0.01539746
  45        -0.08510066
  46         0.07706294
  47        -0.07301809
  48        -0.00705805
  49        -0.19437266
  50         1.07428358
  51        -0.97281789
  52         0.05424332
  53         0.00524325
  54         0.14439460
  55        -0.79805849
  56         0.72268216
  57        -0.01881560
  58        -0.00181875
  59        -0.05008675
  60         0.27682582
  61        -0.25067972
Sym=    37a  
Ene=     1.7498
Spin= Alpha
Occup=    0.00000
   1         0.00000000
   2         0.00000000
   3         0.00000000
   4         0.00000000
   5         0.00000000
   6         0.00000000
   7         0.00000000
   8         0.00000000
   9         0.00000000
  10         0.00000000
  11        -0.00000000
  12         0.00000000
  13        -0.00000000
  14         0.00000000
  15        -0.00000000
  16         0.00000000
  17        -0.00000000
  18         0.00000000
  19        -0.00000000
  20         0.00000000
  21        -0.00000000
  22         0.00000000
  23        -0.00000000
  24         0.00000000
  25        -0.00000001
  26         0.00000003
  27        -0.00000000
  28         0.00000002
  29        -0.00000009
  30         0.00000000
  31        -0.00000002
  32         0.00000010
  33        -0.00000000
  34         0.00000001
  35        -0.00000006
  36         0.00000000
  37        -0.00000001
  38         0.00000003
  39        -0.00000000
  40         0.00000000
  41        -0.00000001
  42         0.02182343
  43        -0.00248968
  44         0.11163767
  45         0.02248176
  46         0.00090103
  47        -0.27549204
  48         0.03142889
  49        -1.40927823
  50        -0.28380253
  51        -0.01137434
  52         0.20465617
  53        -0.02334774
  54         1.04691767
  55         0.21082983
  56         0.00844972
  57        -0.07098992
  58         0.00809873
  59        -0.36314862
  60        -0.07313141
  61        -0.00293099
Sym=    38a  
Ene=     1.7498
Spin= Alpha
Occup=    0.00000
   1         0.00000000
   2         0.00000000
   3         0.00000000
   4         0.00000000
   5         0.00000000
   6         0.00000000
   7         0.00000000
   8         0.00000000
   9        -0.00000000
  10         0.00000000
  11        -0.00000000
  12         0.00000000
  13        -0.00000000
  14         0.00000000
  15        -0.00000000
  16         0.00000000
  17        -0.00000000
  18         0.00000000
  19        -0.00000000
  20        -0.00000000
  21        -0.00000000
  22         0.00000000
  23        -0.00000000
  24         0.00000000
  25        -0.00000001
  26        -0.00000000
  27        -0.00000000
  28         0.00000003
  29         0.00000000
  30         0.00000000
  31        -0.00000003
  32        -0.00000000
  33        -0.00000000
  34         0.00000002
  35        -0.00000000
  36         0.00000000
  37        -0.00000001
  38         0.00000000
  39        -0.00000000
  40         0.00000000
  41        -0.00000000
  42         0.06070577
  43         0.09801381
  44        -0.00878091
  45        -0.00414620
  46        -0.00809179
  47        -0.76633024
  48        -1.23729507
  49         0.11084744
  50         0.05234034
  51         0.10214812
  52         0.56928764
  53         0.91915567
  54        -0.08234580
  55        -0.03888233
  56        -0.07588330
  57        -0.19747113
  58        -0.31883129
  59         0.02856362
  60         0.01348727
  61         0.02632195
Sym=    39a  
Ene=     1.7498
Spin= Alpha
Occup=    0.00000
   1         0.00000000
   2         0.00000000
   3         0.00000000
   4         0.00000000
   5         0.00000000
   6         0.00000000
   7         0.00000000
   8         0.00000000
   9         0.00000000
  10         0.00000000
  11        -0.00000000
  12         0.00000000
  13        -0.00000000
  14         0.00000000
  15         0.00000000
  16         0.00000000
  17        -0.00000000
  18        -0.00000000
  19        -0.00000000
  20        -0.00000000
  21         0.00000000
  22         0.00000000
  23         0.00000000
  24        -0.00000000
  25        -0.00000001
  26        -0.00000000
  27         0.00000001
  28         0.00000004
  29         0.00000001
  30        -0.00000001
  31        -0.00000004
  32        -0.00000001
  33         0.00000001
  34         0.00000003
  35         0.00000000
  36        -0.00000000
  37        -0.00000001
  38        -0.00000000
  39         0.00000000
  40         0.00000000
  41         0.00000000
  42         0.09572536
  43        -0.06189621
  44        -0.01902824
  45        -0.00495151
  46        -0.00840195
  47        -1.20840640
  48         0.78135802
  49         0.24020646
  50         0.06250623
  51         0.10606354
  52         0.89769499
  53        -0.58045140
  54        -0.17844339
  55        -0.04643432
  56        -0.07879196
  57        -0.31138714
  58         0.20134355
  59         0.06189739
  60         0.01610686
  61         0.02733089
Sym=    40a  
Ene=     4.2789
Spin= Alpha
Occup=    0.00000
   1        -0.00000122
   2         0.00028219
   3        -0.00072396
   4         0.00944064
   5        -0.02198170
   6         0.16729035
   7        -0.33663980
   8         2.14680727
   9        -6.15754737
  10         8.44433775
  11        -6.24780536
  12         3.17132134
  13        -1.40626023
  14         0.32700011
  15         0.00000000
  16         0.00000000
  17        -0.00000000
  18        -0.00000000
  19        -0.00000000
  20         0.00000001
  21         0.00000003
  22         0.00000002
  23        -0.00000011
  24        -0.00000013
  25        -0.00000011
  26         0.00000043
  27         0.00000013
  28         0.00000005
  29        -0.00000047
  30        -0.00000010
  31        -0.00000018
  32         0.00000032
  33         0.00000005
  34        -0.00000000
  35        -0.00000017
  36        -0.00000002
  37        -0.00000002
  38         0.00000008
  39         0.00000001
  40         0.00000000
  41        -0.00000002
  42        -0.00000000
  43         0.00000000
  44        -0.00000000
  45        -0.00000000
  46        -0.00000000
  47         0.00000000
  48        -0.00000000
  49         0.00000000
  50         0.00000000
  51         0.00000000
  52        -0.00000000
  53         0.00000000
  54        -0.00000000
  55        -0.00000000
  56        -0.00000000
  57         0.00000000
  58        -0.00000000
  59         0.00000000
  60         0.00000000
  61         0.00000000
Sym=    41a  
Ene=     5.1856
Spin= Alpha
Occup=    0.00000
   1         0.00000000
   2         0.00000000
   3        -0.00000000
   4         0.00000000
   5        -0.00000000
   6         0.00000000
   7        -0.00000000
   8         0.00000000
   9        -0.00000001
  10         0.00000001
  11        -0.00000000
  12         0.00000000
  13        -0.00000000
  14         0.00000000
  15         0.00000000
  16         0.00000000
  17         0.00000000
  18        -0.00000000
  19        -0.00000000
  20        -0.00000000
  21         0.00000000
  22         0.00000000
  23         0.00000000
  24        -0.00000000
  25        -0.00000001
  26        -0.00000000
  27         0.00000000
  28         0.00000001
  29         0.00000000
  30        -0.00000000
  31        -0.00000001
  32        -0.00000000
  33         0.00000000
  34         0.00000000
  35         0.00000000
  36        -0.00000000
  37        -0.00000000
  38        -0.00000000
  39         0.00000000
  40         0.00000000
  41         0.00000000
  42         1.35241365
  43        -0.30017131
  44         0.01578949
  45         0.03268708
  46        -0.02266373
  47        -1.10853121
  48         0.24604104
  49        -0.01294215
  50        -0.02679258
  51         0.01857675
  52         0.52823056
  53        -0.11724198
  54         0.00616712
  55         0.01276704
  56        -0.00885208
  57        -0.17333886
  58         0.03847296
  59        -0.00202374
  60        -0.00418950
  61         0.00290481
Sym=    42a  
Ene=     5.1856
Spin= Alpha
Occup=    0.00000
   1         0.00000000
   2         0.00000000
   3        -0.00000000
   4         0.00000000
   5        -0.00000000
   6         0.00000000
   7        -0.00000000
   8         0.00000000
   9        -0.00000000
  10         0.00000000
  11        -0.00000000
  12         0.00000000
  13        -0.00000000
  14         0.00000000
  15         0.00000000
  16         0.00000000
  17        -0.00000000
  18        -0.00000000
  19         0.00000000
  20         0.00000000
  21         0.00000000
  22         0.00000000
  23        -0.00000000
  24        -0.00000000
  25        -0.00000000
  26         0.00000001
  27         0.00000000
  28         0.00000000
  29        -0.00000001
  30        -0.00000000
  31        -0.00000000
  32         0.00000001
  33         0.00000000
  34         0.00000000
  35        -0.00000000
  36        -0.00000000
  37        -0.00000000
  38         0.00000000
  39         0.00000000
  40         0.00000000
  41        -0.00000000
  42         0.21469710
  43         0.99402008
  44         0.92354965
  45        -0.18192528
  46         0.02730140
  47        -0.17598050
  48        -0.81476720
  49        -0.75700479
  50         0.14911847
  51        -0.02237811
  52         0.08385716
  53         0.38824792
  54         0.36072332
  55        -0.07105703
  56         0.01066348
  57        -0.02751773
  58        -0.12740355
  59        -0.11837136
  60         0.02331736
  61        -0.00349922
Sym=    43a  
Ene=     5.1856
Spin= Alpha
Occup=    0.00000
   1         0.00000000
   2        -0.00000000
   3         0.00000000
   4        -0.00000000
   5         0.00000000
   6        -0.00000000
   7         0.00000000
   8        -0.00000000
   9         0.00000000
  10        -0.00000000
  11         0.00000000
  12        -0.00000000
  13         0.00000000
  14        -0.00000000
  15        -0.00000000
  16         0.00000000
  17        -0.00000000
  18        -0.00000000
  19        -0.00000000
  20         0.00000000
  21        -0.00000000
  22         0.00000000
  23        -0.00000000
  24         0.00000000
  25        -0.00000000
  26         0.00000001
  27        -0.00000000
  28         0.00000000
  29        -0.00000001
  30         0.00000000
  31        -0.00000000
  32         0.00000001
  33        -0.00000000
  34         0.00000000
  35        -0.00000000
  36         0.00000000
  37        -0.00000000
  38         0.00000000
  39        -0.00000000
  40         0.00000000
  41        -0.00000000
  42        -0.21286004
  43        -0.87830631
  44         1.03159214
  45         0.17118443
  46        -0.10362950
  47         0.17447472
  48         0.71992024
  49        -0.84556384
  50        -0.14031453
  51         0.08494186
  52        -0.08313963
  53        -0.34305202
  54         0.40292295
  55         0.06686183
  56        -0.04047598
  57         0.02728227
  58         0.11257252
  59        -0.13221916
  60        -0.02194071
  61         0.01328219
Sym=    44a  
Ene=     5.1856
Spin= Alpha
Occup=    0.00000
   1         0.00000000
   2         0.00000000
   3         0.00000000
   4         0.00000000
   5        -0.00000000
   6         0.00000000
   7        -0.00000000
   8         0.00000000
   9        -0.00000000
  10         0.00000000
  11        -0.00000000
  12         0.00000000
  13        -0.00000000
  14         0.00000000
  15        -0.00000000
  16        -0.00000000
  17        -0.00000000
  18         0.00000000
  19         0.00000000
  20         0.00000000
  21        -0.00000000
  22        -0.00000000
  23        -0.00000000
  24         0.00000001
  25         0.00000000
  26         0.00000000
  27        -0.00000001
  28        -0.00000000
  29        -0.00000000
  30         0.00000001
  31         0.00000000
  32         0.00000000
  33        -0.00000000
  34        -0.00000000
  35        -0.00000000
  36         0.00000000
  37         0.00000000
  38         0.00000000
  39        -0.00000000
  40        -0.00000000
  41        -0.00000000
  42         0.00067933
  43        -0.10447729
  44         0.05970682
  45        -0.05993403
  46         1.37945059
  47        -0.00055683
  48         0.08563677
  49        -0.04893982
  50         0.04912605
  51        -1.13069255
  52         0.00026534
  53        -0.04080711
  54         0.02332050
  55        -0.02340925
  56         0.53879075
  57        -0.00008707
  58         0.01339085
  59        -0.00765262
  60         0.00768174
  61        -0.17680418
Sym=    45a  
Ene=     5.1856
Spin= Alpha
Occup=    0.00000
   1         0.00000000
   2         0.00000000
   3        -0.00000000
   4         0.00000000
   5        -0.00000000
   6         0.00000000
   7        -0.00000000
   8         0.00000000
   9        -0.00000000
  10         0.00000000
  11        -0.00000000
  12         0.00000000
  13        -0.00000000
  14         0.00000000
  15        -0.00000000
  16         0.00000000
  17        -0.00000000
  18         0.00000000
  19        -0.00000000
  20         0.00000000
  21        -0.00000000
  22         0.00000000
  23        -0.00000000
  24         0.00000000
  25        -0.00000001
  26         0.00000000
  27        -0.00000000
  28         0.00000001
  29        -0.00000000
  30         0.00000000
  31        -0.00000001
  32         0.00000000
  33        -0.00000000
  34         0.00000000
  35        -0.00000000
  36         0.00000000
  37        -0.00000000
  38         0.00000000
  39        -0.00000000
  40         0.00000000
  41        -0.00000000
  42         0.02301110
  43         0.24584685
  44        -0.00404907
  45         1.36157829
  46         0.07794147
  47        -0.01886148
  48        -0.20151298
  49         0.00331890
  50        -1.11604318
  51        -0.06388619
  52         0.00898776
  53         0.09602374
  54        -0.00158150
  55         0.53181012
  56         0.03044266
  57        -0.00294933
  58        -0.03151019
  59         0.00051897
  60        -0.17451349
  61        -0.00998976
Sym=    46a  
Ene=     5.6386
Spin= Alpha
Occup=    0.00000
   1         0.00000000
   2         0.00000000
   3        -0.00000000
   4         0.00000000
   5        -0.00000000
   6         0.00000002
   7        -0.00000002
   8         0.00000023
   9        -0.00000076
  10         0.00000110
  11        -0.00000084
  12         0.00000045
  13        -0.00000020
  14         0.00000004
  15         0.00025377
  16        -0.00000406
  17         0.02519325
  18        -0.00077262
  19         0.00001238
  20        -0.07670099
  21         0.01492054
  22        -0.00023899
  23         1.48122554
  24        -0.03441389
  25         0.00055121
  26        -3.41641396
  27         0.03137873
  28        -0.00050260
  29         3.11510060
  30        -0.01938126
  31         0.00031043
  32        -1.92406079
  33         0.01113206
  34        -0.00017830
  35         1.10512745
  36        -0.00466411
  37         0.00007471
  38        -0.46302602
  39         0.00121638
  40        -0.00001948
  41         0.12075507
  42        -0.00000000
  43         0.00000000
  44         0.00000001
  45         0.00000000
  46         0.00000000
  47         0.00000000
  48        -0.00000000
  49        -0.00000001
  50        -0.00000000
  51        -0.00000000
  52        -0.00000000
  53         0.00000000
  54         0.00000000
  55         0.00000000
  56         0.00000000
  57        -0.00000000
  58        -0.00000000
  59         0.00000000
  60        -0.00000000
  61         0.00000000
Sym=    47a  
Ene=     5.6386
Spin= Alpha
Occup=    0.00000
   1         0.00000000
   2        -0.00000000
   3         0.00000000
   4        -0.00000000
   5         0.00000000
   6        -0.00000001
   7         0.00000003
   8        -0.00000011
   9         0.00000028
  10        -0.00000042
  11         0.00000037
  12        -0.00000021
  13         0.00000008
  14        -0.00000001
  15         0.02519299
  16        -0.00011468
  17        -0.00025379
  18        -0.07670020
  19         0.00034914
  20         0.00077267
  21         1.48121024
  22        -0.00674246
  23        -0.01492147
  24        -3.41637860
  25         0.01555133
  26         0.03441605
  27         3.11506835
  28        -0.01417977
  29        -0.03138070
  30        -1.92404083
  31         0.00875822
  32         0.01938248
  33         1.10511600
  34        -0.00503048
  35        -0.01113276
  36        -0.46302122
  37         0.00210767
  38         0.00466440
  39         0.12075380
  40        -0.00054967
  41        -0.00121645
  42        -0.00000000
  43        -0.00000000
  44        -0.00000000
  45         0.00000000
  46         0.00000001
  47         0.00000000
  48         0.00000000
  49         0.00000000
  50        -0.00000000
  51        -0.00000001
  52        -0.00000000
  53        -0.00000000
  54        -0.00000000
  55         0.00000000
  56         0.00000000
  57         0.00000000
  58        -0.00000000
  59        -0.00000000
  60        -0.00000000
  61         0.00000000
Sym=    48a  
Ene=     5.6386
Spin= Alpha
Occup=    0.00000
   1         0.00000000
   2        -0.00000000
   3         0.00000000
   4        -0.00000000
   5         0.00000001
   6        -0.00000005
   7         0.00000020
   8        -0.00000041
   9         0.00000064
  10        -0.00000102
  11         0.00000123
  12        -0.00000078
  13         0.00000018
  14         0.00000001
  15         0.00011471
  16         0.02519427
  17         0.00000291
  18        -0.00034925
  19        -0.07670409
  20        -0.00000886
  21         0.00674452
  22         1.48128538
  23         0.00017106
  24        -0.01555610
  25        -3.41655190
  26        -0.00039454
  27         0.01418411
  28         3.11522636
  29         0.00035974
  30        -0.00876090
  31        -1.92413843
  32        -0.00022220
  33         0.00503202
  34         1.10517206
  35         0.00012762
  36        -0.00210832
  37        -0.46304470
  38        -0.00005347
  39         0.00054984
  40         0.12075993
  41         0.00001395
  42        -0.00000000
  43        -0.00000000
  44        -0.00000000
  45        -0.00000001
  46         0.00000000
  47         0.00000000
  48         0.00000000
  49         0.00000000
  50         0.00000001
  51        -0.00000000
  52        -0.00000000
  53        -0.00000000
  54        -0.00000000
  55        -0.00000000
  56         0.00000000
  57        -0.00000000
  58        -0.00000000
  59        -0.00000000
  60        -0.00000000
  61        -0.00000000
Sym=    49a  
Ene=    16.6630
Spin= Alpha
Occup=    0.00000
   1         0.00010314
   2        -0.00045003
   3         0.00728192
   4        -0.02286901
   5         0.17323130
   6        -0.48453701
   7         3.20348201
   8        -7.03717131
   9         7.58337624
  10        -5.09963973
  11         2.95336830
  12        -1.56507825
  13         0.60021208
  14        -0.15173034
  15        -0.00000000
  16        -0.00000001
  17        -0.00000000
  18         0.00000002
  19         0.00000021
  20         0.00000004
  21        -0.00000005
  22        -0.00000062
  23        -0.00000012
  24         0.00000004
  25         0.00000049
  26         0.00000009
  27        -0.00000003
  28        -0.00000038
  29        -0.00000007
  30         0.00000001
  31         0.00000009
  32         0.00000002
  33        -0.00000001
  34        -0.00000016
  35        -0.00000003
  36         0.00000000
  37         0.00000005
  38         0.00000001
  39        -0.00000000
  40        -0.00000001
  41        -0.00000000
  42         0.00000000
  43        -0.00000000
  44         0.00000000
  45         0.00000000
  46         0.00000000
  47        -0.00000000
  48         0.00000000
  49        -0.00000000
  50        -0.00000000
  51        -0.00000000
  52         0.00000000
  53         0.00000000
  54         0.00000000
  55         0.00000000
  56        -0.00000000
  57        -0.00000000
  58        -0.00000000
  59         0.00000000
  60        -0.00000000
  61         0.00000000
Sym=    50a  
Ene=    21.8830
Spin= Alpha
Occup=    0.00000
   1        -0.00000000
   2         0.00000000
   3        -0.00000000
   4         0.00000000
   5        -0.00000001
   6         0.00000002
   7        -0.00000011
   8         0.00000028
   9        -0.00000040
  10         0.00000038
  11        -0.00000027
  12         0.00000015
  13        -0.00000006
  14         0.00000001
  15         0.01076974
  16        -0.00018971
  17        -0.06208456
  18        -0.28771974
  19         0.00506831
  20         1.65862416
  21         0.47131389
  22        -0.00830241
  23        -2.71699329
  24        -0.36076497
  25         0.00635504
  26         2.07970960
  27         0.23292320
  28        -0.00410305
  29        -1.34273739
  30        -0.14692145
  31         0.00258809
  32         0.84696124
  33         0.07500170
  34        -0.00132119
  35        -0.43236393
  36        -0.03414837
  37         0.00060154
  38         0.19685583
  39         0.00896642
  40        -0.00015795
  41        -0.05168888
  42         0.00000000
  43         0.00000000
  44         0.00000000
  45        -0.00000000
  46        -0.00000000
  47         0.00000000
  48        -0.00000000
  49        -0.00000000
  50         0.00000000
  51         0.00000000
  52         0.00000000
  53        -0.00000000
  54        -0.00000000
  55         0.00000000
  56         0.00000000
  57        -0.00000000
  58         0.00000000
  59         0.00000000
  60        -0.00000000
  61        -0.00000000
Sym=    51a  
Ene=    21.8830
Spin= Alpha
Occup=    0.00000
   1        -0.00000000
   2         0.00000000
   3        -0.00000000
   4         0.00000000
   5        -0.00000000
   6         0.00000000
   7        -0.00000011
   8         0.00000027
   9        -0.00000028
  10         0.00000012
  11         0.00000000
  12        -0.00000002
  13        -0.00000001
  14         0.00000001
  15        -0.06151553
  16        -0.00854648
  17        -0.01064492
  18         1.64342199
  19         0.22832396
  20         0.28438494
  21        -2.69209058
  22        -0.37401762
  23        -0.46585115
  24         2.06064792
  25         0.28629000
  26         0.35658355
  27        -1.33043045
  28        -0.18483941
  29        -0.23022352
  30         0.83919837
  31         0.11659154
  32         0.14521857
  33        -0.42840108
  34        -0.05951863
  35        -0.07413240
  36         0.19505154
  37         0.02709891
  38         0.03375257
  39        -0.05121513
  40        -0.00711542
  41        -0.00886249
  42        -0.00000000
  43         0.00000000
  44         0.00000000
  45        -0.00000000
  46         0.00000000
  47         0.00000000
  48         0.00000000
  49        -0.00000000
  50         0.00000000
  51        -0.00000000
  52         0.00000000
  53         0.00000000
  54        -0.00000000
  55        -0.00000000
  56        -0.00000000
  57        -0.00000000
  58        -0.00000000
  59         0.00000000
  60        -0.00000000
  61         0.00000000
Sym=    52a  
Ene=    21.8830
Spin= Alpha
Occup=    0.00000
   1        -0.00000000
   2         0.00000000
   3        -0.00000000
   4         0.00000000
   5        -0.00000002
   6         0.00000002
   7        -0.00000044
   8         0.00000112
   9        -0.00000118
  10         0.00000056
  11        -0.00000005
  12        -0.00000002
  13        -0.00000006
  14         0.00000005
  15         0.00838863
  16        -0.06242947
  17         0.00164593
  18        -0.22410706
  19         1.66783840
  20        -0.04397208
  21         0.36710991
  22        -2.73208712
  23         0.07203069
  24        -0.28100253
  25         2.09126308
  26        -0.05513555
  27         0.18142562
  28        -1.35019673
  29         0.03559755
  30        -0.11443822
  31         0.85166639
  32        -0.02245394
  33         0.05841939
  34        -0.43476586
  35         0.01146248
  36        -0.02659842
  37         0.19794944
  38        -0.00521888
  39         0.00698401
  40        -0.05197603
  41         0.00137033
  42        -0.00000000
  43        -0.00000000
  44         0.00000000
  45        -0.00000000
  46        -0.00000000
  47         0.00000000
  48        -0.00000000
  49         0.00000000
  50         0.00000000
  51         0.00000000
  52         0.00000000
  53        -0.00000000
  54         0.00000000
  55         0.00000000
  56        -0.00000000
  57        -0.00000000
  58         0.00000000
  59        -0.00000000
  60        -0.00000000
  61        -0.00000000
