[MOLDEN FORMAT]
[N_ATOMS]
                    1
[ATOMS] (AU)
BE          1      4           0.00000000      0.00000000      0.00000000
[5D]
[CHARGE] (MULLIKEN)
  -5.9507954119908391E-014
[GTO] (AU)
   1
   s   1
  0.227643706E+05  0.100000000E+01
   s   1
  0.339255201E+04  0.100000000E+01
   s   1
  0.764912502E+03  0.100000000E+01
   s   1
  0.213010923E+03  0.100000000E+01
   s   1
  0.676268088E+02  0.100000000E+01
   s   1
  0.235124101E+02  0.100000000E+01
   s   1
  0.877370124E+01  0.100000000E+01
   s   1
  0.348889955E+01  0.100000000E+01
   s   1
  0.146085686E+01  0.100000000E+01
   s   1
  0.612266690E+00  0.100000000E+01
   s   1
  0.259232116E+00  0.100000000E+01
   s   1
  0.104801056E+00  0.100000000E+01
   s   1
  0.426815620E-01  0.100000000E+01
   s   1
  0.149380940E-01  0.100000000E+01
   p   1
  0.337101840E+02  0.100000000E+01
   p   1
  0.805764950E+01  0.100000000E+01
   p   1
  0.283647140E+01  0.100000000E+01
   p   1
  0.109996570E+01  0.100000000E+01
   p   1
  0.443396400E+00  0.100000000E+01
   p   1
  0.182226400E+00  0.100000000E+01
   p   1
  0.757241000E-01  0.100000000E+01
   p   1
  0.316854000E-01  0.100000000E+01
   p   1
  0.110899000E-01  0.100000000E+01
   d   1
  0.140000000E+01  0.100000000E+01
   d   1
  0.490000000E+00  0.100000000E+01
   d   1
  0.171500000E+00  0.100000000E+01
   d   1
  0.600250000E-01  0.100000000E+01
 
[MO]
Sym=     1a  
Ene=     0.0000
Spin= Alpha
Occup=    1.99687
   1         0.00005303
   2         0.00041587
   3         0.00221437
   4         0.00951271
   5         0.03466165
   6         0.10560713
   7         0.24496929
   8         0.38614260
   9         0.31342971
  10         0.06635283
  11        -0.00470643
  12        -0.00590554
  13        -0.00292227
  14         0.00009540
  15        -0.00000000
  16        -0.00000000
  17         0.00000000
  18        -0.00000000
  19        -0.00000000
  20        -0.00000000
  21        -0.00000000
  22        -0.00000000
  23        -0.00000000
  24        -0.00000000
  25        -0.00000000
  26        -0.00000000
  27         0.00000000
  28         0.00000000
  29        -0.00000000
  30        -0.00000000
  31         0.00000000
  32         0.00000000
  33         0.00000000
  34         0.00000000
  35         0.00000000
  36         0.00000000
  37         0.00000000
  38         0.00000000
  39        -0.00000000
  40        -0.00000000
  41        -0.00000000
  42        -0.00000000
  43         0.00000000
  44         0.00000000
  45        -0.00000000
  46         0.00000000
  47        -0.00000000
  48         0.00000000
  49         0.00000000
  50        -0.00000000
  51         0.00000000
  52        -0.00000000
  53         0.00000000
  54         0.00000000
  55        -0.00000000
  56         0.00000000
  57        -0.00000000
  58        -0.00000000
  59        -0.00000000
  60        -0.00000000
  61        -0.00000000
Sym=     2a  
Ene=     0.0000
Spin= Alpha
Occup=    1.80733
   1        -0.00000932
   2        -0.00007313
   3        -0.00038981
   4        -0.00168204
   5        -0.00620439
   6        -0.01953402
   7        -0.04870885
   8        -0.09269365
   9        -0.13024765
  10        -0.06230947
  11         0.28744972
  12         0.62424458
  13         0.23430619
  14        -0.00182463
  15         0.00000000
  16         0.00000000
  17         0.00000000
  18         0.00000000
  19         0.00000000
  20        -0.00000000
  21         0.00000000
  22         0.00000000
  23         0.00000000
  24         0.00000000
  25         0.00000000
  26         0.00000000
  27         0.00000001
  28         0.00000001
  29         0.00000000
  30         0.00000000
  31         0.00000000
  32         0.00000000
  33        -0.00000001
  34        -0.00000001
  35        -0.00000000
  36        -0.00000000
  37        -0.00000000
  38         0.00000000
  39         0.00000000
  40         0.00000000
  41        -0.00000000
  42        -0.00000000
  43         0.00000000
  44         0.00000000
  45        -0.00000000
  46         0.00000000
  47        -0.00000000
  48         0.00000000
  49         0.00000000
  50        -0.00000000
  51         0.00000000
  52         0.00000000
  53        -0.00000000
  54        -0.00000000
  55         0.00000000
  56        -0.00000000
  57         0.00000000
  58         0.00000000
  59         0.00000000
  60         0.00000000
  61         0.00000000
Sym=     3a  
Ene=     0.0000
Spin= Alpha
Occup=    0.00063
   1        -0.00000000
   2        -0.00000000
   3        -0.00000000
   4         0.00000000
   5        -0.00000001
   6         0.00000001
   7        -0.00000008
   8         0.00000016
   9        -0.00000018
  10         0.00000017
  11        -0.00000014
  12         0.00000007
  13        -0.00000001
  14         0.00000000
  15         0.02875731
  16        -0.01265895
  17         0.07288737
  18         0.21110081
  19        -0.09292647
  20         0.53504953
  21         0.16389478
  22        -0.07214640
  23         0.41540259
  24         0.00598792
  25        -0.00263588
  26         0.01517680
  27        -0.01544443
  28         0.00679863
  29        -0.03914498
  30        -0.03834905
  31         0.01688124
  32        -0.09719831
  33        -0.01854369
  34         0.00816292
  35        -0.04700027
  36        -0.00086775
  37         0.00038198
  38        -0.00219938
  39        -0.00000222
  40         0.00000097
  41        -0.00000562
  42        -0.00000000
  43        -0.00000000
  44        -0.00000000
  45        -0.00000000
  46        -0.00000000
  47         0.00000000
  48         0.00000000
  49         0.00000000
  50         0.00000000
  51         0.00000000
  52        -0.00000000
  53        -0.00000000
  54        -0.00000000
  55        -0.00000000
  56        -0.00000000
  57        -0.00000000
  58        -0.00000000
  59        -0.00000000
  60        -0.00000000
  61        -0.00000000
Sym=     4a  
Ene=     0.0000
Spin= Alpha
Occup=    0.00063
   1        -0.00000000
   2        -0.00000000
   3         0.00000000
   4        -0.00000001
   5         0.00000001
   6        -0.00000009
   7         0.00000012
   8        -0.00000023
   9         0.00000036
  10        -0.00000025
  11         0.00000004
  12        -0.00000003
  13         0.00000007
  14        -0.00000002
  15         0.00530512
  16         0.07835216
  17         0.01151496
  18         0.03894370
  19         0.57516533
  20         0.08452869
  21         0.03023517
  22         0.44654778
  23         0.06562652
  24         0.00110465
  25         0.01631469
  26         0.00239768
  27        -0.00284918
  28        -0.04207993
  29        -0.00618424
  30        -0.00707460
  31        -0.10448587
  32        -0.01535567
  33        -0.00342093
  34        -0.05052416
  35        -0.00742524
  36        -0.00016008
  37        -0.00236428
  38        -0.00034746
  39        -0.00000041
  40        -0.00000602
  41        -0.00000089
  42         0.00000000
  43        -0.00000000
  44        -0.00000000
  45         0.00000000
  46        -0.00000000
  47        -0.00000000
  48         0.00000000
  49         0.00000000
  50        -0.00000000
  51         0.00000000
  52         0.00000000
  53        -0.00000000
  54        -0.00000000
  55         0.00000000
  56        -0.00000000
  57         0.00000000
  58        -0.00000000
  59        -0.00000000
  60         0.00000000
  61        -0.00000000
Sym=     5a  
Ene=     0.0000
Spin= Alpha
Occup=    0.00063
   1         0.00000000
   2        -0.00000000
   3         0.00000000
   4        -0.00000002
   5         0.00000007
   6        -0.00000040
   7         0.00000109
   8        -0.00000211
   9         0.00000271
  10        -0.00000226
  11         0.00000131
  12        -0.00000066
  13         0.00000033
  14        -0.00000009
  15         0.07378803
  16        -0.00069972
  17        -0.02923418
  18         0.54166108
  19        -0.00513645
  20        -0.21460145
  21         0.42053567
  22        -0.00398785
  23        -0.16661260
  24         0.01536434
  25        -0.00014570
  26        -0.00608722
  27        -0.03962869
  28         0.00037579
  29         0.01570054
  30        -0.09839938
  31         0.00093310
  32         0.03898499
  33        -0.04758105
  34         0.00045120
  35         0.01885120
  36        -0.00222655
  37         0.00002111
  38         0.00088214
  39        -0.00000569
  40         0.00000005
  41         0.00000225
  42         0.00000000
  43         0.00000000
  44         0.00000000
  45        -0.00000000
  46        -0.00000000
  47        -0.00000000
  48         0.00000000
  49        -0.00000000
  50         0.00000000
  51         0.00000000
  52         0.00000000
  53        -0.00000000
  54         0.00000000
  55         0.00000000
  56        -0.00000000
  57         0.00000000
  58        -0.00000000
  59         0.00000000
  60        -0.00000000
  61        -0.00000000
Sym=     6a  
Ene=     0.0000
Spin= Alpha
Occup=    0.00125
   1         0.00008450
   2         0.00068985
   3         0.00351795
   4         0.01690822
   5         0.06803333
   6         0.33948360
   7         0.74115707
   8        -0.18739034
   9        -0.79439482
  10        -0.18346847
  11         0.07896557
  12         0.19348121
  13         0.07078315
  14        -0.00024037
  15         0.00000000
  16         0.00000000
  17        -0.00000000
  18         0.00000003
  19         0.00000002
  20        -0.00000000
  21         0.00000003
  22         0.00000002
  23        -0.00000000
  24         0.00000001
  25         0.00000001
  26         0.00000000
  27         0.00000001
  28         0.00000002
  29         0.00000001
  30         0.00000002
  31         0.00000004
  32         0.00000002
  33         0.00000001
  34         0.00000002
  35         0.00000001
  36        -0.00000000
  37        -0.00000000
  38         0.00000000
  39        -0.00000000
  40        -0.00000000
  41         0.00000000
  42        -0.00000000
  43         0.00000000
  44         0.00000000
  45        -0.00000000
  46         0.00000000
  47         0.00000000
  48        -0.00000000
  49        -0.00000000
  50         0.00000000
  51        -0.00000000
  52        -0.00000000
  53         0.00000000
  54         0.00000000
  55        -0.00000000
  56         0.00000000
  57         0.00000000
  58         0.00000000
  59         0.00000000
  60         0.00000000
  61         0.00000000
Sym=     7a  
Ene=     0.0000
Spin= Alpha
Occup=    0.06422
   1        -0.00000000
   2         0.00000000
   3        -0.00000000
   4         0.00000000
   5        -0.00000002
   6         0.00000007
   7        -0.00000026
   8         0.00000048
   9        -0.00000065
  10         0.00000058
  11        -0.00000025
  12         0.00000016
  13        -0.00000018
  14         0.00000003
  15         0.00015875
  16         0.00008149
  17         0.00113270
  18         0.00100702
  19         0.00051688
  20         0.00718504
  21         0.00287025
  22         0.00147324
  23         0.02047906
  24         0.00694235
  25         0.00356337
  26         0.04953318
  27         0.03104381
  28         0.01593415
  29         0.22149543
  30         0.07473235
  31         0.03835857
  32         0.53321022
  33         0.04151018
  34         0.02130631
  35         0.29617228
  36         0.00081788
  37         0.00041980
  38         0.00583555
  39         0.00028470
  40         0.00014613
  41         0.00203130
  42        -0.00000000
  43         0.00000000
  44         0.00000000
  45         0.00000000
  46         0.00000000
  47        -0.00000000
  48        -0.00000000
  49        -0.00000000
  50        -0.00000000
  51        -0.00000000
  52        -0.00000000
  53         0.00000000
  54         0.00000000
  55         0.00000000
  56         0.00000000
  57         0.00000000
  58        -0.00000000
  59         0.00000000
  60        -0.00000000
  61         0.00000000
Sym=     8a  
Ene=     0.0000
Spin= Alpha
Occup=    0.06422
   1         0.00000000
   2        -0.00000000
   3         0.00000000
   4        -0.00000000
   5         0.00000001
   6        -0.00000005
   7         0.00000010
   8        -0.00000025
   9         0.00000022
  10        -0.00000015
  11         0.00000029
  12        -0.00000006
  13        -0.00000015
  14        -0.00000000
  15        -0.00005357
  16         0.00114298
  17        -0.00007472
  18        -0.00033981
  19         0.00725024
  20        -0.00047395
  21        -0.00096853
  22         0.02066492
  23        -0.00135087
  24        -0.00234260
  25         0.04998268
  26        -0.00326737
  27        -0.01047529
  28         0.22350538
  29        -0.01461056
  30        -0.02521738
  31         0.53804872
  32        -0.03517229
  33        -0.01400703
  34         0.29885981
  35        -0.01953649
  36        -0.00027598
  37         0.00588849
  38        -0.00038493
  39        -0.00009607
  40         0.00204972
  41        -0.00013399
  42        -0.00000000
  43        -0.00000000
  44        -0.00000000
  45        -0.00000000
  46         0.00000000
  47         0.00000000
  48         0.00000000
  49        -0.00000000
  50         0.00000000
  51        -0.00000000
  52        -0.00000000
  53        -0.00000000
  54        -0.00000000
  55        -0.00000000
  56         0.00000000
  57        -0.00000000
  58        -0.00000000
  59         0.00000000
  60        -0.00000000
  61        -0.00000000
Sym=     9a  
Ene=     0.0000
Spin= Alpha
Occup=    0.06422
   1         0.00000000
   2        -0.00000000
   3         0.00000000
   4        -0.00000001
   5         0.00000006
   6        -0.00000029
   7         0.00000093
   8        -0.00000183
   9         0.00000223
  10        -0.00000190
  11         0.00000127
  12        -0.00000056
  13         0.00000015
  14        -0.00000009
  15         0.00113436
  16         0.00004257
  17        -0.00016205
  18         0.00719559
  19         0.00027005
  20        -0.00102793
  21         0.02050913
  22         0.00076970
  23        -0.00292984
  24         0.04960590
  25         0.00186170
  26        -0.00708647
  27         0.22182063
  28         0.00832487
  29        -0.03168827
  30         0.53399307
  31         0.02004062
  32        -0.07628378
  33         0.29660711
  34         0.01113159
  35        -0.04237192
  36         0.00584411
  37         0.00021933
  38        -0.00083486
  39         0.00203428
  40         0.00007635
  41        -0.00029061
  42        -0.00000000
  43        -0.00000000
  44        -0.00000000
  45         0.00000000
  46         0.00000000
  47         0.00000000
  48        -0.00000000
  49         0.00000000
  50        -0.00000000
  51        -0.00000000
  52        -0.00000000
  53        -0.00000000
  54        -0.00000000
  55         0.00000000
  56         0.00000000
  57        -0.00000000
  58         0.00000000
  59        -0.00000000
  60        -0.00000000
  61         0.00000000
Sym=    10a  
Ene=     0.0275
Spin= Alpha
Occup=    0.00000
   1         0.00000000
   2         0.00000000
   3         0.00000000
   4         0.00000000
   5         0.00000000
   6         0.00000000
   7         0.00000000
   8         0.00000000
   9         0.00000000
  10        -0.00000002
  11         0.00000003
  12        -0.00000003
  13         0.00000015
  14        -0.00000020
  15        -0.00000171
  16        -0.00013626
  17        -0.00000052
  18        -0.00000405
  19        -0.00032203
  20        -0.00000124
  21        -0.00007750
  22        -0.00616501
  23        -0.00002373
  24         0.00008734
  25         0.00694799
  26         0.00002674
  27        -0.00033315
  28        -0.02650299
  29        -0.00010201
  30         0.00151863
  31         0.12081144
  32         0.00046502
  33        -0.00244093
  34        -0.19418306
  35        -0.00074743
  36         0.00838189
  37         0.66680250
  38         0.00256660
  39        -0.01703069
  40        -1.35483836
  41        -0.00521492
  42        -0.00000000
  43         0.00000000
  44         0.00000000
  45        -0.00000000
  46         0.00000000
  47         0.00000000
  48        -0.00000000
  49        -0.00000000
  50         0.00000000
  51        -0.00000000
  52        -0.00000000
  53         0.00000000
  54         0.00000000
  55        -0.00000000
  56         0.00000000
  57         0.00000000
  58        -0.00000000
  59         0.00000000
  60         0.00000000
  61        -0.00000000
Sym=    11a  
Ene=     0.0275
Spin= Alpha
Occup=    0.00000
   1         0.00000000
   2         0.00000000
   3         0.00000000
   4         0.00000000
   5        -0.00000000
   6         0.00000000
   7        -0.00000000
   8         0.00000000
   9        -0.00000001
  10        -0.00000001
  11         0.00000002
  12        -0.00000002
  13         0.00000011
  14        -0.00000015
  15        -0.00013513
  16         0.00000177
  17        -0.00001753
  18        -0.00031936
  19         0.00000417
  20        -0.00004144
  21        -0.00611378
  22         0.00007991
  23        -0.00079324
  24         0.00689025
  25        -0.00009005
  26         0.00089399
  27        -0.02628276
  28         0.00034351
  29        -0.00341010
  30         0.11980751
  31        -0.00156585
  32         0.01554460
  33        -0.19256942
  34         0.00251682
  35        -0.02498521
  36         0.66126150
  37        -0.00864248
  38         0.08579636
  39        -1.34357985
  40         0.01756016
  41        -0.17432477
  42        -0.00000000
  43         0.00000000
  44         0.00000000
  45         0.00000000
  46         0.00000000
  47         0.00000000
  48        -0.00000000
  49        -0.00000000
  50        -0.00000000
  51        -0.00000000
  52        -0.00000000
  53         0.00000000
  54         0.00000000
  55         0.00000000
  56         0.00000000
  57         0.00000000
  58         0.00000000
  59        -0.00000000
  60        -0.00000000
  61        -0.00000000
Sym=    12a  
Ene=     0.0275
Spin= Alpha
Occup=    0.00000
   1         0.00000000
   2        -0.00000000
   3         0.00000000
   4        -0.00000000
   5         0.00000000
   6        -0.00000000
   7         0.00000000
   8        -0.00000000
   9         0.00000000
  10        -0.00000001
  11         0.00000001
  12        -0.00000001
  13         0.00000004
  14        -0.00000004
  15         0.00001754
  16         0.00000030
  17        -0.00013514
  18         0.00004145
  19         0.00000071
  20        -0.00031938
  21         0.00079348
  22         0.00001356
  23        -0.00611426
  24        -0.00089425
  25        -0.00001528
  26         0.00689078
  27         0.00341112
  28         0.00005829
  29        -0.02628481
  30        -0.01554929
  31        -0.00026573
  32         0.11981684
  33         0.02499274
  34         0.00042711
  35        -0.19258442
  36        -0.08582221
  37        -0.00146666
  38         0.66131300
  39         0.17437730
  40         0.00298002
  41        -1.34368448
  42         0.00000000
  43         0.00000000
  44         0.00000000
  45        -0.00000000
  46        -0.00000000
  47        -0.00000000
  48        -0.00000000
  49        -0.00000000
  50         0.00000000
  51         0.00000000
  52         0.00000000
  53         0.00000000
  54         0.00000000
  55        -0.00000000
  56        -0.00000000
  57         0.00000000
  58        -0.00000000
  59        -0.00000000
  60         0.00000000
  61         0.00000000
Sym=    13a  
Ene=     0.0388
Spin= Alpha
Occup=    0.00000
   1         0.00000064
   2         0.00000159
   3         0.00003500
   4         0.00000530
   5         0.00071276
   6        -0.00013096
   7         0.01047055
   8        -0.00783243
   9         0.03457869
  10        -0.17780329
  11         0.28135020
  12        -0.65079512
  13         1.84007903
  14        -1.93697116
  15        -0.00000000
  16         0.00000000
  17         0.00000000
  18        -0.00000000
  19         0.00000000
  20         0.00000000
  21        -0.00000000
  22         0.00000000
  23         0.00000000
  24        -0.00000001
  25        -0.00000000
  26         0.00000000
  27        -0.00000000
  28         0.00000000
  29         0.00000000
  30        -0.00000003
  31        -0.00000003
  32        -0.00000001
  33         0.00000002
  34         0.00000002
  35         0.00000001
  36        -0.00000011
  37        -0.00000015
  38        -0.00000005
  39         0.00000013
  40         0.00000018
  41         0.00000006
  42        -0.00000000
  43         0.00000000
  44         0.00000000
  45        -0.00000000
  46         0.00000000
  47         0.00000000
  48         0.00000000
  49         0.00000000
  50         0.00000000
  51         0.00000000
  52        -0.00000000
  53        -0.00000000
  54        -0.00000000
  55        -0.00000000
  56        -0.00000000
  57         0.00000000
  58         0.00000000
  59         0.00000000
  60         0.00000000
  61         0.00000000
Sym=    14a  
Ene=     0.1352
Spin= Alpha
Occup=    0.00000
   1        -0.00000000
   2        -0.00000000
   3        -0.00000000
   4        -0.00000000
   5         0.00000000
   6        -0.00000000
   7         0.00000000
   8        -0.00000001
   9         0.00000002
  10        -0.00000002
  11         0.00000009
  12        -0.00000033
  13         0.00000041
  14        -0.00000018
  15        -0.00000014
  16         0.00000584
  17        -0.00000023
  18        -0.00014616
  19         0.00598018
  20        -0.00023828
  21        -0.00001768
  22         0.00072355
  23        -0.00002883
  24        -0.00143132
  25         0.05856279
  26        -0.00233341
  27         0.00411419
  28        -0.16833314
  29         0.00670717
  30        -0.00825930
  31         0.33793168
  32        -0.01346476
  33         0.03920716
  34        -1.60417205
  35         0.06391762
  36        -0.06265641
  37         2.56360470
  38        -0.10214584
  39         0.02475462
  40        -1.01284220
  41         0.04035631
  42         0.00000000
  43         0.00000000
  44        -0.00000000
  45         0.00000000
  46        -0.00000000
  47        -0.00000000
  48        -0.00000000
  49         0.00000000
  50        -0.00000000
  51         0.00000000
  52         0.00000000
  53         0.00000000
  54         0.00000000
  55         0.00000000
  56        -0.00000000
  57        -0.00000000
  58        -0.00000000
  59        -0.00000000
  60        -0.00000000
  61         0.00000000
Sym=    15a  
Ene=     0.1352
Spin= Alpha
Occup=    0.00000
   1         0.00000000
   2        -0.00000000
   3         0.00000000
   4        -0.00000000
   5         0.00000000
   6        -0.00000000
   7         0.00000000
   8        -0.00000002
   9         0.00000004
  10        -0.00000004
  11         0.00000008
  12        -0.00000026
  13         0.00000033
  14        -0.00000014
  15         0.00000582
  16         0.00000012
  17        -0.00000061
  18         0.00595254
  19         0.00012049
  20        -0.00062727
  21         0.00072021
  22         0.00001458
  23        -0.00007589
  24         0.05829210
  25         0.00117995
  26        -0.00614271
  27        -0.16755506
  28        -0.00339165
  29         0.01765664
  30         0.33636968
  31         0.00680879
  32        -0.03544600
  33        -1.59675719
  34        -0.03232155
  35         0.16826327
  36         2.55175506
  37         0.05165261
  38        -0.26889915
  39        -1.00816056
  40        -0.02040718
  41         0.10623806
  42         0.00000000
  43         0.00000000
  44         0.00000000
  45        -0.00000000
  46        -0.00000000
  47        -0.00000000
  48        -0.00000000
  49        -0.00000000
  50         0.00000000
  51         0.00000000
  52         0.00000000
  53         0.00000000
  54         0.00000000
  55        -0.00000000
  56        -0.00000000
  57        -0.00000000
  58        -0.00000000
  59        -0.00000000
  60         0.00000000
  61         0.00000000
Sym=    16a  
Ene=     0.1352
Spin= Alpha
Occup=    0.00000
   1        -0.00000000
   2        -0.00000000
   3        -0.00000000
   4         0.00000000
   5        -0.00000000
   6         0.00000000
   7        -0.00000000
   8         0.00000000
   9         0.00000000
  10         0.00000000
  11         0.00000003
  12        -0.00000014
  13         0.00000017
  14        -0.00000008
  15         0.00000061
  16         0.00000025
  17         0.00000581
  18         0.00062179
  19         0.00025223
  20         0.00594899
  21         0.00007523
  22         0.00003052
  23         0.00071978
  24         0.00608905
  25         0.00247006
  26         0.05825733
  27        -0.01750239
  28        -0.00709996
  29        -0.16745512
  30         0.03513635
  31         0.01425328
  32         0.33616904
  33        -0.16679331
  34        -0.06766078
  35        -1.59580474
  36         0.26655003
  37         0.10812773
  38         2.55023296
  39        -0.10530996
  40        -0.04271966
  41        -1.00755919
  42         0.00000000
  43        -0.00000000
  44        -0.00000000
  45        -0.00000000
  46        -0.00000000
  47         0.00000000
  48         0.00000000
  49         0.00000000
  50         0.00000000
  51         0.00000000
  52         0.00000000
  53        -0.00000000
  54        -0.00000000
  55        -0.00000000
  56        -0.00000000
  57        -0.00000000
  58         0.00000000
  59         0.00000000
  60         0.00000000
  61         0.00000000
Sym=    17a  
Ene=     0.1841
Spin= Alpha
Occup=    0.00000
   1         0.00000000
   2         0.00000000
   3         0.00000000
   4         0.00000000
   5         0.00000000
   6         0.00000000
   7         0.00000000
   8         0.00000000
   9        -0.00000000
  10         0.00000000
  11        -0.00000000
  12         0.00000000
  13        -0.00000001
  14         0.00000000
  15         0.00000000
  16        -0.00000000
  17         0.00000000
  18        -0.00000000
  19        -0.00000000
  20         0.00000000
  21         0.00000000
  22        -0.00000000
  23         0.00000000
  24        -0.00000000
  25        -0.00000000
  26         0.00000000
  27         0.00000000
  28        -0.00000000
  29         0.00000000
  30        -0.00000000
  31         0.00000000
  32        -0.00000000
  33         0.00000000
  34        -0.00000000
  35        -0.00000000
  36        -0.00000001
  37         0.00000000
  38         0.00000000
  39         0.00000000
  40        -0.00000000
  41        -0.00000000
  42        -0.00421267
  43         0.00014333
  44        -0.00181115
  45        -0.00983767
  46        -0.00000853
  47         0.02665997
  48        -0.00090704
  49         0.01146190
  50         0.06225797
  51         0.00005400
  52        -0.08158605
  53         0.00277576
  54        -0.03507622
  55        -0.19052468
  56        -0.00016525
  57         0.43137886
  58        -0.01467659
  59         0.18546232
  60         1.00738199
  61         0.00087377
Sym=    18a  
Ene=     0.1841
Spin= Alpha
Occup=    0.00000
   1        -0.00000000
   2        -0.00000000
   3        -0.00000000
   4        -0.00000000
   5        -0.00000000
   6        -0.00000000
   7        -0.00000000
   8        -0.00000000
   9        -0.00000000
  10         0.00000000
  11        -0.00000000
  12         0.00000000
  13        -0.00000000
  14         0.00000000
  15        -0.00000000
  16         0.00000000
  17         0.00000000
  18         0.00000000
  19         0.00000000
  20         0.00000000
  21        -0.00000000
  22         0.00000000
  23         0.00000000
  24         0.00000000
  25         0.00000000
  26         0.00000000
  27        -0.00000000
  28         0.00000000
  29         0.00000000
  30         0.00000000
  31         0.00000000
  32        -0.00000000
  33        -0.00000000
  34        -0.00000000
  35         0.00000000
  36         0.00000000
  37         0.00000000
  38        -0.00000000
  39        -0.00000000
  40        -0.00000000
  41         0.00000000
  42        -0.00068628
  43        -0.00080977
  44        -0.01056198
  45         0.00222620
  46         0.00043479
  47         0.00434317
  48         0.00512462
  49         0.06684179
  50        -0.01408857
  51        -0.00275159
  52        -0.01329117
  53        -0.01568261
  54        -0.20455231
  55         0.04311448
  56         0.00842054
  57         0.07027584
  58         0.08292037
  59         1.08155182
  60        -0.22796390
  61        -0.04452285
Sym=    19a  
Ene=     0.1841
Spin= Alpha
Occup=    0.00000
   1        -0.00000000
   2        -0.00000000
   3        -0.00000000
   4        -0.00000000
   5        -0.00000000
   6        -0.00000000
   7        -0.00000000
   8         0.00000000
   9        -0.00000000
  10         0.00000000
  11        -0.00000000
  12         0.00000000
  13        -0.00000000
  14         0.00000000
  15         0.00000000
  16         0.00000000
  17         0.00000000
  18         0.00000000
  19        -0.00000000
  20         0.00000000
  21         0.00000000
  22         0.00000000
  23         0.00000000
  24         0.00000000
  25        -0.00000000
  26         0.00000000
  27         0.00000000
  28         0.00000000
  29         0.00000000
  30        -0.00000000
  31        -0.00000000
  32         0.00000000
  33         0.00000000
  34         0.00000001
  35        -0.00000000
  36        -0.00000000
  37        -0.00000001
  38         0.00000000
  39         0.00000000
  40         0.00000000
  41        -0.00000000
  42        -0.00010448
  43         0.00035786
  44        -0.00043735
  45         0.00013987
  46        -0.01083870
  47         0.00066122
  48        -0.00226474
  49         0.00276777
  50        -0.00088519
  51         0.06859299
  52        -0.00202351
  53         0.00693067
  54        -0.00847006
  55         0.00270891
  56        -0.20991141
  57         0.01069912
  58        -0.03664529
  59         0.04478468
  60        -0.01432312
  61         1.10988760
Sym=    20a  
Ene=     0.1841
Spin= Alpha
Occup=    0.00000
   1        -0.00000000
   2        -0.00000000
   3        -0.00000000
   4        -0.00000000
   5        -0.00000000
   6        -0.00000000
   7        -0.00000000
   8         0.00000000
   9        -0.00000000
  10         0.00000000
  11        -0.00000000
  12         0.00000000
  13        -0.00000000
  14         0.00000000
  15         0.00000000
  16        -0.00000000
  17         0.00000000
  18         0.00000000
  19        -0.00000000
  20        -0.00000000
  21         0.00000000
  22        -0.00000000
  23         0.00000000
  24         0.00000000
  25        -0.00000000
  26        -0.00000000
  27         0.00000000
  28         0.00000000
  29         0.00000000
  30         0.00000000
  31        -0.00000000
  32        -0.00000000
  33        -0.00000000
  34         0.00000000
  35         0.00000001
  36         0.00000000
  37        -0.00000000
  38        -0.00000001
  39        -0.00000000
  40         0.00000000
  41         0.00000000
  42        -0.00023614
  43        -0.01081488
  44         0.00078615
  45        -0.00020084
  46        -0.00038911
  47         0.00149440
  48         0.06844227
  49        -0.00497516
  50         0.00127102
  51         0.00246251
  52        -0.00457324
  53        -0.20945016
  54         0.01522522
  55        -0.00388962
  56        -0.00753590
  57         0.02418059
  58         1.10744876
  59        -0.08050195
  60         0.02056601
  61         0.03984538
Sym=    21a  
Ene=     0.1841
Spin= Alpha
Occup=    0.00000
   1         0.00000000
   2        -0.00000000
   3         0.00000000
   4        -0.00000000
   5         0.00000000
   6        -0.00000000
   7         0.00000000
   8        -0.00000000
   9         0.00000000
  10        -0.00000000
  11         0.00000000
  12        -0.00000000
  13         0.00000000
  14        -0.00000000
  15         0.00000000
  16         0.00000000
  17        -0.00000000
  18        -0.00000000
  19         0.00000000
  20        -0.00000000
  21         0.00000000
  22         0.00000000
  23        -0.00000000
  24        -0.00000000
  25         0.00000000
  26        -0.00000000
  27         0.00000000
  28         0.00000000
  29         0.00000000
  30        -0.00000000
  31        -0.00000000
  32        -0.00000000
  33         0.00000000
  34        -0.00000000
  35         0.00000000
  36        -0.00000001
  37        -0.00000000
  38        -0.00000000
  39         0.00000000
  40         0.00000000
  41         0.00000000
  42         0.00997712
  43        -0.00024740
  44        -0.00147721
  45        -0.00400394
  46        -0.00009641
  47        -0.06314049
  48         0.00156569
  49         0.00934858
  50         0.02533906
  51         0.00061014
  52         0.19322542
  53        -0.00479139
  54        -0.02860897
  55        -0.07754374
  56        -0.00186717
  57        -1.02166191
  58         0.02533404
  59         0.15126732
  60         0.41000550
  61         0.00987249
Sym=    22a  
Ene=     0.2562
Spin= Alpha
Occup=    0.00000
   1         0.00000079
   2         0.00002273
   3        -0.00000475
   4         0.00069203
   5        -0.00060072
   6         0.01162347
   7        -0.00780093
   8         0.11617576
   9        -0.28726149
  10         0.46532480
  11        -1.78187049
  12         4.46641469
  13        -4.43929643
  14         1.40354502
  15         0.00000000
  16         0.00000000
  17        -0.00000000
  18         0.00000000
  19         0.00000000
  20         0.00000000
  21         0.00000001
  22         0.00000000
  23        -0.00000000
  24         0.00000003
  25         0.00000002
  26         0.00000000
  27        -0.00000002
  28        -0.00000004
  29        -0.00000001
  30         0.00000011
  31         0.00000013
  32         0.00000003
  33        -0.00000036
  34        -0.00000045
  35        -0.00000012
  36         0.00000030
  37         0.00000037
  38         0.00000010
  39        -0.00000009
  40        -0.00000011
  41        -0.00000003
  42         0.00000000
  43         0.00000000
  44         0.00000000
  45        -0.00000000
  46         0.00000000
  47        -0.00000000
  48        -0.00000000
  49        -0.00000000
  50        -0.00000000
  51        -0.00000000
  52         0.00000000
  53         0.00000000
  54         0.00000000
  55        -0.00000000
  56         0.00000000
  57        -0.00000000
  58        -0.00000000
  59        -0.00000000
  60        -0.00000000
  61        -0.00000000
Sym=    23a  
Ene=     0.5115
Spin= Alpha
Occup=    0.00000
   1        -0.00000000
   2         0.00000000
   3        -0.00000000
   4         0.00000000
   5        -0.00000000
   6         0.00000000
   7        -0.00000000
   8         0.00000001
   9        -0.00000004
  10         0.00000017
  11        -0.00000046
  12         0.00000068
  13        -0.00000050
  14         0.00000013
  15        -0.00002331
  16         0.00195638
  17        -0.00004121
  18        -0.00001338
  19         0.00112323
  20        -0.00002366
  21        -0.00107022
  22         0.08981999
  23        -0.00189221
  24         0.00162412
  25        -0.13630692
  26         0.00287153
  27        -0.00673062
  28         0.56487711
  29        -0.01190007
  30         0.03038577
  31        -2.55017138
  32         0.05372358
  33        -0.04223391
  34         3.54454420
  35        -0.07467168
  36         0.02269490
  37        -1.90470341
  38         0.04012573
  39        -0.00602760
  40         0.50587518
  41        -0.01065710
  42        -0.00000000
  43        -0.00000000
  44         0.00000000
  45        -0.00000000
  46         0.00000000
  47        -0.00000000
  48        -0.00000000
  49         0.00000000
  50        -0.00000000
  51         0.00000000
  52        -0.00000000
  53        -0.00000000
  54         0.00000000
  55        -0.00000000
  56         0.00000000
  57         0.00000000
  58         0.00000000
  59        -0.00000000
  60         0.00000000
  61        -0.00000000
Sym=    24a  
Ene=     0.5115
Spin= Alpha
Occup=    0.00000
   1        -0.00000000
   2         0.00000000
   3        -0.00000000
   4         0.00000000
   5        -0.00000000
   6         0.00000000
   7        -0.00000001
   8         0.00000004
   9        -0.00000005
  10        -0.00000007
  11         0.00000037
  12        -0.00000059
  13         0.00000044
  14        -0.00000012
  15        -0.00195111
  16        -0.00002009
  17         0.00014969
  18        -0.00112021
  19        -0.00001154
  20         0.00008594
  21        -0.08957830
  22        -0.00092256
  23         0.00687264
  24         0.13594015
  25         0.00140004
  26        -0.01042962
  27        -0.56335715
  28        -0.00580196
  29         0.04322197
  30         2.54330940
  31         0.02619331
  32        -0.19512815
  33        -3.53500651
  34        -0.03640671
  35         0.27121328
  36         1.89957821
  37         0.01956358
  38        -0.14573971
  39        -0.50451398
  40        -0.00519594
  41         0.03870739
  42         0.00000000
  43        -0.00000000
  44         0.00000000
  45        -0.00000000
  46        -0.00000000
  47         0.00000000
  48        -0.00000000
  49         0.00000000
  50        -0.00000000
  51        -0.00000000
  52         0.00000000
  53        -0.00000000
  54         0.00000000
  55        -0.00000000
  56        -0.00000000
  57        -0.00000000
  58         0.00000000
  59        -0.00000000
  60         0.00000000
  61         0.00000000
Sym=    25a  
Ene=     0.5115
Spin= Alpha
Occup=    0.00000
   1         0.00000000
   2        -0.00000000
   3         0.00000000
   4        -0.00000000
   5         0.00000000
   6        -0.00000000
   7         0.00000001
   8        -0.00000003
   9         0.00000005
  10        -0.00000009
  11         0.00000016
  12        -0.00000022
  13         0.00000016
  14        -0.00000004
  15        -0.00014923
  16        -0.00004287
  17        -0.00195078
  18        -0.00008568
  19        -0.00002462
  20        -0.00112002
  21        -0.00685120
  22        -0.00196843
  23        -0.08956307
  24         0.01039708
  25         0.00298720
  26         0.13591703
  27        -0.04308712
  28        -0.01237942
  29        -0.56326134
  30         0.19451938
  31         0.05588764
  32         2.54287684
  33        -0.27036713
  34        -0.07767956
  35        -3.53440526
  36         0.14528503
  37         0.04174205
  38         1.89925512
  39        -0.03858663
  40        -0.01108638
  41        -0.50442817
  42        -0.00000000
  43        -0.00000000
  44        -0.00000000
  45        -0.00000000
  46        -0.00000000
  47        -0.00000000
  48        -0.00000000
  49        -0.00000000
  50        -0.00000000
  51        -0.00000000
  52        -0.00000000
  53        -0.00000000
  54        -0.00000000
  55        -0.00000000
  56        -0.00000000
  57         0.00000000
  58         0.00000000
  59         0.00000000
  60         0.00000000
  61         0.00000000
Sym=    26a  
Ene=     0.6030
Spin= Alpha
Occup=    0.00000
   1         0.00000000
   2         0.00000000
   3         0.00000000
   4         0.00000000
   5         0.00000000
   6         0.00000000
   7         0.00000000
   8         0.00000000
   9        -0.00000000
  10         0.00000000
  11        -0.00000000
  12         0.00000000
  13        -0.00000000
  14         0.00000000
  15        -0.00000000
  16         0.00000000
  17        -0.00000000
  18        -0.00000000
  19        -0.00000000
  20         0.00000000
  21        -0.00000000
  22         0.00000000
  23        -0.00000000
  24         0.00000000
  25        -0.00000000
  26         0.00000000
  27        -0.00000000
  28         0.00000000
  29        -0.00000000
  30         0.00000001
  31        -0.00000001
  32         0.00000000
  33        -0.00000001
  34         0.00000001
  35        -0.00000000
  36         0.00000000
  37        -0.00000001
  38         0.00000000
  39        -0.00000000
  40         0.00000000
  41        -0.00000000
  42         0.01876870
  43        -0.00190029
  44         0.00319929
  45         0.04474225
  46         0.00049226
  47        -0.06161864
  48         0.00623875
  49        -0.01050345
  50        -0.14689117
  51        -0.00161610
  52         0.53777248
  53        -0.05444829
  54         0.09166812
  55         1.28198271
  56         0.01410440
  57        -0.28010864
  58         0.02836039
  59        -0.04774702
  60        -0.66774416
  61        -0.00734653
Sym=    27a  
Ene=     0.6030
Spin= Alpha
Occup=    0.00000
   1        -0.00000000
   2        -0.00000000
   3        -0.00000000
   4        -0.00000000
   5        -0.00000000
   6        -0.00000000
   7        -0.00000000
   8        -0.00000000
   9         0.00000000
  10        -0.00000000
  11         0.00000000
  12        -0.00000000
  13         0.00000000
  14        -0.00000000
  15         0.00000000
  16        -0.00000000
  17        -0.00000000
  18        -0.00000000
  19         0.00000000
  20         0.00000000
  21         0.00000000
  22        -0.00000000
  23        -0.00000000
  24        -0.00000000
  25         0.00000000
  26         0.00000000
  27         0.00000000
  28        -0.00000000
  29        -0.00000000
  30        -0.00000000
  31         0.00000000
  32         0.00000001
  33         0.00000000
  34        -0.00000000
  35        -0.00000001
  36        -0.00000000
  37         0.00000000
  38         0.00000001
  39         0.00000000
  40        -0.00000000
  41        -0.00000000
  42        -0.00169926
  43         0.00672767
  44         0.04795141
  45        -0.00238755
  46        -0.00387753
  47         0.00557876
  48        -0.02208730
  49        -0.15742699
  50         0.00783846
  51         0.01273015
  52        -0.04868824
  53         0.19276545
  54         1.37393341
  55        -0.06840961
  56        -0.11110152
  57         0.02536016
  58        -0.10040541
  59        -0.71563836
  60         0.03563240
  61         0.05786926
Sym=    28a  
Ene=     0.6030
Spin= Alpha
Occup=    0.00000
   1        -0.00000000
   2        -0.00000000
   3        -0.00000000
   4        -0.00000000
   5        -0.00000000
   6        -0.00000000
   7        -0.00000000
   8        -0.00000000
   9         0.00000000
  10        -0.00000000
  11         0.00000000
  12        -0.00000000
  13         0.00000000
  14        -0.00000000
  15        -0.00000000
  16        -0.00000000
  17        -0.00000000
  18         0.00000000
  19        -0.00000000
  20         0.00000000
  21        -0.00000000
  22        -0.00000000
  23        -0.00000000
  24         0.00000000
  25         0.00000000
  26         0.00000000
  27        -0.00000000
  28        -0.00000000
  29        -0.00000000
  30         0.00000001
  31         0.00000001
  32         0.00000000
  33        -0.00000001
  34        -0.00000001
  35        -0.00000000
  36         0.00000001
  37         0.00000001
  38         0.00000000
  39        -0.00000000
  40        -0.00000000
  41        -0.00000000
  42         0.00288725
  43        -0.00185637
  44         0.00416440
  45        -0.00211937
  46         0.04831776
  47        -0.00947898
  48         0.00609457
  49        -0.01367195
  50         0.00695800
  51        -0.15862975
  52         0.08272716
  53        -0.05318996
  54         0.11932102
  55        -0.06072546
  56         1.38443037
  57        -0.04308996
  58         0.02770497
  59        -0.06215054
  60         0.03162997
  61        -0.72110590
Sym=    29a  
Ene=     0.6030
Spin= Alpha
Occup=    0.00000
   1         0.00000000
   2         0.00000000
   3         0.00000000
   4         0.00000000
   5         0.00000000
   6         0.00000000
   7         0.00000000
   8         0.00000000
   9         0.00000000
  10        -0.00000000
  11        -0.00000000
  12         0.00000000
  13        -0.00000000
  14         0.00000000
  15         0.00000000
  16         0.00000000
  17        -0.00000000
  18         0.00000000
  19        -0.00000000
  20         0.00000000
  21         0.00000000
  22         0.00000000
  23        -0.00000000
  24        -0.00000000
  25        -0.00000000
  26         0.00000000
  27         0.00000000
  28         0.00000000
  29        -0.00000000
  30        -0.00000001
  31        -0.00000000
  32         0.00000000
  33         0.00000001
  34         0.00000000
  35        -0.00000000
  36        -0.00000001
  37        -0.00000000
  38         0.00000000
  39         0.00000000
  40         0.00000000
  41        -0.00000000
  42         0.04326702
  43        -0.01124545
  44         0.00185579
  45        -0.01871619
  46        -0.00399839
  47        -0.14204791
  48         0.03691939
  49        -0.00609266
  50         0.06144624
  51         0.01312691
  52         1.23971354
  53        -0.32221149
  54         0.05317330
  55        -0.53626786
  56        -0.11456424
  57        -0.64572749
  58         0.16782975
  59        -0.02769629
  60         0.27932493
  61         0.05967288
Sym=    30a  
Ene=     0.6030
Spin= Alpha
Occup=    0.00000
   1         0.00000000
   2         0.00000000
   3         0.00000000
   4         0.00000000
   5         0.00000000
   6         0.00000000
   7         0.00000000
   8         0.00000000
   9         0.00000000
  10        -0.00000000
  11         0.00000000
  12        -0.00000000
  13         0.00000000
  14        -0.00000000
  15        -0.00000000
  16         0.00000000
  17        -0.00000000
  18         0.00000000
  19        -0.00000000
  20        -0.00000000
  21        -0.00000000
  22         0.00000000
  23        -0.00000000
  24         0.00000000
  25        -0.00000000
  26         0.00000000
  27        -0.00000000
  28         0.00000000
  29        -0.00000000
  30         0.00000000
  31        -0.00000000
  32         0.00000001
  33        -0.00000000
  34         0.00000000
  35        -0.00000001
  36         0.00000000
  37        -0.00000000
  38         0.00000000
  39        -0.00000000
  40         0.00000000
  41        -0.00000000
  42         0.01151951
  43         0.04679149
  44        -0.00615330
  45        -0.00242181
  46         0.00153349
  47        -0.03781914
  48        -0.15361891
  49         0.02020160
  50         0.00795095
  51        -0.00503454
  52         0.33006403
  53         1.34069868
  54        -0.17630806
  55        -0.06939134
  56         0.04393857
  57        -0.17191989
  58        -0.69832744
  59         0.09183328
  60         0.03614375
  61        -0.02288621
Sym=    31a  
Ene=     1.1006
Spin= Alpha
Occup=    0.00000
   1        -0.00000794
   2         0.00000546
   3        -0.00049107
   4         0.00076703
   5        -0.01064125
   6         0.01616078
   7        -0.15732943
   8         0.25858085
   9        -0.95650659
  10         3.86280212
  11        -6.95181152
  12         6.03819049
  13        -2.72804537
  14         0.67527532
  15        -0.00000000
  16        -0.00000000
  17         0.00000000
  18         0.00000000
  19         0.00000000
  20         0.00000000
  21        -0.00000003
  22        -0.00000002
  23         0.00000000
  24         0.00000003
  25         0.00000003
  26         0.00000001
  27        -0.00000031
  28        -0.00000025
  29        -0.00000001
  30         0.00000052
  31         0.00000048
  32         0.00000005
  33        -0.00000037
  34        -0.00000031
  35        -0.00000002
  36         0.00000017
  37         0.00000015
  38         0.00000001
  39        -0.00000004
  40        -0.00000004
  41        -0.00000000
  42        -0.00000000
  43        -0.00000000
  44        -0.00000000
  45        -0.00000000
  46        -0.00000000
  47         0.00000000
  48         0.00000000
  49        -0.00000000
  50         0.00000000
  51        -0.00000000
  52        -0.00000000
  53         0.00000000
  54         0.00000000
  55        -0.00000000
  56         0.00000000
  57         0.00000000
  58         0.00000000
  59         0.00000000
  60         0.00000000
  61         0.00000000
Sym=    32a  
Ene=     1.6734
Spin= Alpha
Occup=    0.00000
   1        -0.00000000
   2         0.00000000
   3        -0.00000000
   4         0.00000000
   5        -0.00000000
   6         0.00000001
   7        -0.00000003
   8         0.00000006
   9        -0.00000020
  10         0.00000052
  11        -0.00000074
  12         0.00000051
  13        -0.00000017
  14         0.00000004
  15        -0.00001919
  16         0.00123881
  17        -0.00002768
  18         0.00103747
  19        -0.06696419
  20         0.00149648
  21        -0.00090942
  22         0.05869952
  23        -0.00131178
  24         0.01474677
  25        -0.95184149
  26         0.02127118
  27        -0.04956966
  28         3.19951204
  29        -0.07150077
  30         0.05538988
  31        -3.57518292
  32         0.07989603
  33        -0.03322478
  34         2.14451939
  35        -0.04792443
  36         0.01473957
  37        -0.95137731
  38         0.02126081
  39        -0.00375493
  40         0.24236461
  41        -0.00541622
  42        -0.00000000
  43        -0.00000000
  44         0.00000000
  45        -0.00000000
  46         0.00000000
  47         0.00000001
  48         0.00000000
  49        -0.00000001
  50         0.00000002
  51        -0.00000001
  52        -0.00000001
  53        -0.00000000
  54         0.00000001
  55        -0.00000002
  56         0.00000001
  57         0.00000000
  58         0.00000000
  59        -0.00000000
  60         0.00000001
  61        -0.00000000
Sym=    33a  
Ene=     1.6734
Spin= Alpha
Occup=    0.00000
   1        -0.00000000
   2         0.00000000
   3        -0.00000000
   4         0.00000000
   5        -0.00000001
   6         0.00000002
   7        -0.00000009
   8         0.00000027
   9        -0.00000061
  10         0.00000108
  11        -0.00000125
  12         0.00000083
  13        -0.00000031
  14         0.00000007
  15         0.00123714
  16         0.00001759
  17        -0.00007045
  18        -0.06687385
  19        -0.00095096
  20         0.00380821
  21         0.05862033
  22         0.00083360
  23        -0.00333821
  24        -0.95055737
  25        -0.01351719
  26         0.05413064
  27         3.19519561
  28         0.04543658
  29        -0.18195430
  30        -3.57035963
  31        -0.05077151
  32         0.20331847
  33         2.14162622
  34         0.03045452
  35        -0.12195751
  36        -0.95009380
  37        -0.01351060
  38         0.05410425
  39         0.24203762
  40         0.00344184
  41        -0.01378313
  42        -0.00000000
  43         0.00000000
  44        -0.00000000
  45         0.00000000
  46         0.00000000
  47         0.00000001
  48        -0.00000001
  49         0.00000000
  50        -0.00000001
  51        -0.00000002
  52        -0.00000001
  53         0.00000001
  54        -0.00000000
  55         0.00000001
  56         0.00000002
  57         0.00000000
  58        -0.00000000
  59         0.00000000
  60        -0.00000000
  61        -0.00000001
Sym=    34a  
Ene=     1.6734
Spin= Alpha
Occup=    0.00000
   1         0.00000000
   2        -0.00000000
   3         0.00000000
   4        -0.00000000
   5         0.00000000
   6        -0.00000001
   7         0.00000003
   8        -0.00000008
   9         0.00000015
  10        -0.00000013
  11         0.00000005
  12        -0.00000002
  13         0.00000002
  14        -0.00000000
  15         0.00007003
  16         0.00002873
  17         0.00123696
  18        -0.00378556
  19        -0.00155288
  20        -0.06686387
  21         0.00331835
  22         0.00136123
  23         0.05861157
  24        -0.05380868
  25        -0.02207296
  26        -0.95041547
  27         0.18087205
  28         0.07419588
  29         3.19471863
  30        -0.20210915
  31        -0.08290759
  32        -3.56982664
  33         0.12123211
  34         0.04973086
  35         2.14130651
  36        -0.05378244
  37        -0.02206220
  38        -0.94995197
  39         0.01370115
  40         0.00562037
  41         0.24200149
  42         0.00000000
  43         0.00000000
  44         0.00000000
  45         0.00000000
  46         0.00000000
  47        -0.00000001
  48        -0.00000001
  49        -0.00000002
  50        -0.00000000
  51        -0.00000000
  52         0.00000001
  53         0.00000001
  54         0.00000002
  55         0.00000000
  56         0.00000000
  57        -0.00000000
  58        -0.00000000
  59        -0.00000001
  60        -0.00000000
  61        -0.00000000
Sym=    35a  
Ene=     1.7499
Spin= Alpha
Occup=    0.00000
   1        -0.00000000
   2        -0.00000000
   3        -0.00000000
   4        -0.00000000
   5        -0.00000000
   6        -0.00000000
   7         0.00000000
   8        -0.00000000
   9         0.00000000
  10        -0.00000000
  11         0.00000000
  12        -0.00000000
  13         0.00000000
  14        -0.00000000
  15         0.00000000
  16        -0.00000000
  17         0.00000000
  18        -0.00000000
  19         0.00000000
  20        -0.00000000
  21         0.00000000
  22        -0.00000000
  23         0.00000000
  24        -0.00000001
  25         0.00000002
  26        -0.00000000
  27         0.00000002
  28        -0.00000005
  29         0.00000001
  30        -0.00000002
  31         0.00000005
  32        -0.00000001
  33         0.00000002
  34        -0.00000003
  35         0.00000001
  36        -0.00000001
  37         0.00000001
  38        -0.00000000
  39         0.00000000
  40        -0.00000000
  41         0.00000000
  42        -0.03843135
  43         0.00390936
  44        -0.00464921
  45        -0.10924552
  46        -0.00184328
  47         0.48514200
  48        -0.04935026
  49         0.05868972
  50         1.37907188
  51         0.02326880
  52        -0.36039923
  53         0.03666101
  54        -0.04359905
  55        -1.02447620
  56        -0.01728578
  57         0.12501308
  58        -0.01271675
  59         0.01512337
  60         0.35536404
  61         0.00599599
Sym=    36a  
Ene=     1.7499
Spin= Alpha
Occup=    0.00000
   1        -0.00000000
   2        -0.00000000
   3        -0.00000000
   4        -0.00000000
   5        -0.00000000
   6        -0.00000000
   7         0.00000000
   8        -0.00000000
   9         0.00000000
  10        -0.00000000
  11         0.00000000
  12        -0.00000000
  13         0.00000000
  14        -0.00000000
  15        -0.00000000
  16        -0.00000000
  17        -0.00000000
  18         0.00000000
  19         0.00000000
  20         0.00000000
  21        -0.00000000
  22        -0.00000000
  23        -0.00000000
  24         0.00000000
  25         0.00000001
  26         0.00000002
  27        -0.00000000
  28        -0.00000002
  29        -0.00000005
  30         0.00000000
  31         0.00000002
  32         0.00000005
  33        -0.00000000
  34        -0.00000001
  35        -0.00000003
  36         0.00000000
  37         0.00000001
  38         0.00000001
  39        -0.00000000
  40        -0.00000000
  41        -0.00000000
  42        -0.00358786
  43         0.02832235
  44         0.11232074
  45        -0.00243921
  46        -0.00386288
  47         0.04529169
  48        -0.35753011
  49        -1.41789219
  50         0.03079167
  51         0.04876343
  52        -0.03364600
  53         0.26559971
  54         1.05331479
  55        -0.02287432
  56        -0.03622507
  57         0.01167092
  58        -0.09212960
  59        -0.36536739
  60         0.00793451
  61         0.01256553
Sym=    37a  
Ene=     1.7499
Spin= Alpha
Occup=    0.00000
   1         0.00000000
   2        -0.00000000
   3         0.00000000
   4         0.00000000
   5         0.00000000
   6         0.00000000
   7         0.00000000
   8         0.00000000
   9        -0.00000000
  10         0.00000000
  11        -0.00000000
  12        -0.00000000
  13        -0.00000000
  14         0.00000000
  15         0.00000000
  16         0.00000000
  17         0.00000000
  18        -0.00000000
  19        -0.00000000
  20        -0.00000000
  21         0.00000000
  22         0.00000000
  23         0.00000000
  24        -0.00000001
  25        -0.00000001
  26        -0.00000000
  27         0.00000005
  28         0.00000003
  29         0.00000000
  30        -0.00000005
  31        -0.00000003
  32        -0.00000000
  33         0.00000003
  34         0.00000002
  35         0.00000000
  36        -0.00000001
  37        -0.00000001
  38        -0.00000000
  39         0.00000000
  40         0.00000000
  41         0.00000000
  42        -0.00222839
  43         0.00289340
  44        -0.00471685
  45         0.00304188
  46        -0.11578864
  47         0.02813031
  48        -0.03652511
  49         0.05954369
  50        -0.03839946
  51         1.46166959
  52        -0.02089727
  53         0.02713355
  54        -0.04423344
  55         0.02852595
  56        -1.08583588
  57         0.00724872
  58        -0.00941192
  59         0.01534343
  60        -0.00989491
  61         0.37664810
Sym=    38a  
Ene=     1.7499
Spin= Alpha
Occup=    0.00000
   1         0.00000000
   2        -0.00000000
   3         0.00000000
   4        -0.00000000
   5         0.00000000
   6        -0.00000000
   7         0.00000000
   8        -0.00000000
   9         0.00000000
  10        -0.00000000
  11         0.00000000
  12        -0.00000000
  13         0.00000000
  14        -0.00000000
  15        -0.00000000
  16        -0.00000000
  17         0.00000000
  18         0.00000000
  19         0.00000000
  20        -0.00000000
  21        -0.00000000
  22        -0.00000000
  23         0.00000000
  24         0.00000001
  25         0.00000000
  26        -0.00000000
  27        -0.00000003
  28        -0.00000001
  29         0.00000001
  30         0.00000004
  31         0.00000001
  32        -0.00000001
  33        -0.00000002
  34        -0.00000001
  35         0.00000001
  36         0.00000001
  37         0.00000000
  38        -0.00000000
  39        -0.00000000
  40        -0.00000000
  41         0.00000000
  42        -0.10250325
  43         0.03690829
  44        -0.01161003
  45         0.03780077
  46         0.00436101
  47         1.29396016
  48        -0.46591558
  49         0.14656033
  50        -0.47718185
  51        -0.05505170
  52        -0.96124895
  53         0.34611643
  54        -0.10887581
  55         0.35448584
  56         0.04089646
  57         0.33343215
  58        -0.12005875
  59         0.03776618
  60        -0.12296188
  61        -0.01418591
Sym=    39a  
Ene=     1.7499
Spin= Alpha
Occup=    0.00000
   1        -0.00000000
   2        -0.00000000
   3         0.00000000
   4        -0.00000000
   5         0.00000000
   6        -0.00000000
   7         0.00000000
   8        -0.00000000
   9         0.00000000
  10        -0.00000000
  11         0.00000000
  12        -0.00000000
  13         0.00000000
  14        -0.00000000
  15         0.00000000
  16        -0.00000000
  17         0.00000000
  18        -0.00000000
  19         0.00000000
  20        -0.00000000
  21         0.00000000
  22        -0.00000000
  23         0.00000000
  24        -0.00000000
  25         0.00000000
  26        -0.00000001
  27         0.00000001
  28        -0.00000001
  29         0.00000003
  30        -0.00000001
  31         0.00000001
  32        -0.00000003
  33         0.00000001
  34        -0.00000001
  35         0.00000002
  36        -0.00000000
  37         0.00000000
  38        -0.00000001
  39         0.00000000
  40        -0.00000000
  41         0.00000000
  42        -0.03808050
  43        -0.10613112
  44         0.02563676
  45         0.00855356
  46        -0.00273885
  47         0.48071307
  48         1.33975697
  49        -0.32362826
  50        -0.10797668
  51         0.03457412
  52        -0.35710909
  53        -0.99527019
  54         0.24041492
  55         0.08021303
  56        -0.02568421
  57         0.12387182
  58         0.34523323
  59        -0.08339365
  60        -0.02782381
  61         0.00890918
Sym=    40a  
Ene=     4.3053
Spin= Alpha
Occup=    0.00000
   1        -0.00000126
   2         0.00028265
   3        -0.00072734
   4         0.00945860
   5        -0.02206627
   6         0.16760577
   7        -0.33802251
   8         2.15410242
   9        -6.16709074
  10         8.44480121
  11        -6.24188920
  12         3.16776646
  13        -1.40504642
  14         0.32665168
  15        -0.00000000
  16        -0.00000000
  17         0.00000000
  18         0.00000003
  19         0.00000001
  20        -0.00000001
  21        -0.00000029
  22        -0.00000008
  23         0.00000010
  24         0.00000109
  25         0.00000029
  26        -0.00000039
  27        -0.00000116
  28        -0.00000033
  29         0.00000040
  30         0.00000081
  31         0.00000018
  32        -0.00000031
  33        -0.00000042
  34        -0.00000013
  35         0.00000014
  36         0.00000019
  37         0.00000005
  38        -0.00000007
  39        -0.00000005
  40        -0.00000001
  41         0.00000002
  42        -0.00000000
  43         0.00000000
  44         0.00000000
  45        -0.00000000
  46         0.00000000
  47         0.00000000
  48        -0.00000000
  49        -0.00000000
  50         0.00000000
  51        -0.00000000
  52         0.00000000
  53         0.00000000
  54         0.00000000
  55         0.00000000
  56         0.00000000
  57        -0.00000000
  58        -0.00000000
  59        -0.00000000
  60        -0.00000000
  61        -0.00000000
Sym=    41a  
Ene=     5.1856
Spin= Alpha
Occup=    0.00000
   1        -0.00000000
   2         0.00000000
   3         0.00000000
   4        -0.00000000
   5         0.00000000
   6        -0.00000000
   7         0.00000000
   8        -0.00000000
   9         0.00000000
  10        -0.00000000
  11         0.00000000
  12        -0.00000000
  13         0.00000000
  14        -0.00000000
  15        -0.00000000
  16         0.00000000
  17        -0.00000000
  18         0.00000000
  19        -0.00000000
  20         0.00000000
  21        -0.00000000
  22         0.00000000
  23        -0.00000000
  24         0.00000000
  25        -0.00000000
  26         0.00000000
  27        -0.00000000
  28         0.00000000
  29        -0.00000000
  30         0.00000000
  31        -0.00000000
  32         0.00000000
  33        -0.00000000
  34         0.00000000
  35        -0.00000000
  36         0.00000000
  37        -0.00000000
  38         0.00000000
  39        -0.00000000
  40         0.00000000
  41        -0.00000000
  42        -0.83399488
  43         0.96229167
  44         0.06434281
  45         0.51949172
  46        -0.15934972
  47         0.68359905
  48        -0.78875985
  49        -0.05273975
  50        -0.42581082
  51         0.13061389
  52        -0.32574432
  53         0.37585488
  54         0.02513122
  55         0.20290469
  56        -0.06223931
  57         0.10689299
  58        -0.12333677
  59        -0.00824681
  60        -0.06658317
  61         0.02042383
Sym=    42a  
Ene=     5.1856
Spin= Alpha
Occup=    0.00000
   1        -0.00000000
   2        -0.00000000
   3         0.00000000
   4        -0.00000000
   5         0.00000000
   6        -0.00000000
   7         0.00000000
   8        -0.00000000
   9         0.00000000
  10        -0.00000000
  11         0.00000000
  12        -0.00000000
  13         0.00000000
  14        -0.00000000
  15         0.00000000
  16        -0.00000000
  17        -0.00000000
  18        -0.00000000
  19         0.00000000
  20         0.00000000
  21         0.00000000
  22        -0.00000000
  23        -0.00000000
  24        -0.00000000
  25         0.00000000
  26         0.00000000
  27         0.00000000
  28        -0.00000000
  29        -0.00000000
  30        -0.00000000
  31         0.00000000
  32         0.00000000
  33         0.00000000
  34        -0.00000000
  35        -0.00000000
  36        -0.00000000
  37         0.00000000
  38         0.00000000
  39         0.00000000
  40        -0.00000000
  41        -0.00000000
  42         0.71741525
  43         0.97740866
  44        -0.16079847
  45        -0.65082173
  46        -0.03897807
  47        -0.58804243
  48        -0.80115076
  49         0.13180139
  50         0.53345785
  51         0.03194908
  52         0.28021028
  53         0.38175932
  54        -0.06280517
  55        -0.25419998
  56        -0.01522418
  57        -0.09195099
  58        -0.12527431
  59         0.02060951
  60         0.08341571
  61         0.00499581
Sym=    43a  
Ene=     5.1856
Spin= Alpha
Occup=    0.00000
   1         0.00000000
   2         0.00000000
   3        -0.00000000
   4         0.00000000
   5        -0.00000000
   6         0.00000000
   7        -0.00000000
   8         0.00000000
   9        -0.00000000
  10         0.00000000
  11        -0.00000000
  12         0.00000000
  13        -0.00000000
  14         0.00000000
  15        -0.00000000
  16        -0.00000000
  17        -0.00000000
  18         0.00000000
  19         0.00000000
  20         0.00000000
  21        -0.00000000
  22        -0.00000000
  23        -0.00000000
  24         0.00000001
  25         0.00000000
  26         0.00000000
  27        -0.00000001
  28        -0.00000000
  29        -0.00000000
  30         0.00000000
  31         0.00000000
  32         0.00000000
  33        -0.00000000
  34        -0.00000000
  35        -0.00000000
  36         0.00000000
  37         0.00000000
  38         0.00000000
  39        -0.00000000
  40        -0.00000000
  41        -0.00000000
  42         0.10883678
  43         0.16086370
  44        -0.05102995
  45         0.29394477
  46         1.33948742
  47        -0.08921004
  48        -0.13185485
  49         0.04182762
  50        -0.24093717
  51        -1.09793519
  52         0.04250981
  53         0.06283065
  54        -0.01993144
  55         0.11480986
  56         0.52318117
  57        -0.01394959
  58        -0.02061787
  59         0.00654050
  60        -0.03767485
  61        -0.17168188
Sym=    44a  
Ene=     5.1856
Spin= Alpha
Occup=    0.00000
   1        -0.00000000
   2        -0.00000000
   3        -0.00000000
   4        -0.00000000
   5         0.00000000
   6        -0.00000000
   7         0.00000000
   8        -0.00000000
   9         0.00000000
  10        -0.00000000
  11         0.00000000
  12        -0.00000000
  13         0.00000000
  14        -0.00000000
  15         0.00000000
  16         0.00000000
  17        -0.00000000
  18        -0.00000000
  19        -0.00000000
  20         0.00000000
  21         0.00000000
  22         0.00000000
  23        -0.00000000
  24        -0.00000000
  25        -0.00000000
  26         0.00000000
  27         0.00000000
  28         0.00000000
  29        -0.00000000
  30        -0.00000000
  31        -0.00000000
  32         0.00000000
  33         0.00000000
  34         0.00000000
  35        -0.00000000
  36        -0.00000000
  37        -0.00000000
  38         0.00000000
  39         0.00000000
  40         0.00000000
  41        -0.00000000
  42         0.25672777
  43         0.08861342
  44         1.35671384
  45         0.08072590
  46         0.00246958
  47        -0.21043158
  48        -0.07263360
  49        -1.11205514
  50        -0.06616845
  51        -0.00202424
  52         0.10027353
  53         0.03461091
  54         0.52990952
  55         0.03153017
  56         0.00096458
  57        -0.03290476
  58        -0.01135757
  59        -0.17388979
  60        -0.01034662
  61        -0.00031653
Sym=    45a  
Ene=     5.1856
Spin= Alpha
Occup=    0.00000
   1         0.00000000
   2         0.00000000
   3        -0.00000000
   4         0.00000000
   5        -0.00000000
   6         0.00000000
   7        -0.00000000
   8         0.00000000
   9        -0.00000000
  10         0.00000000
  11        -0.00000000
  12         0.00000000
  13        -0.00000000
  14         0.00000000
  15        -0.00000000
  16         0.00000000
  17         0.00000000
  18         0.00000000
  19        -0.00000000
  20        -0.00000000
  21        -0.00000000
  22         0.00000000
  23         0.00000000
  24         0.00000000
  25        -0.00000001
  26        -0.00000000
  27        -0.00000000
  28         0.00000001
  29         0.00000000
  30         0.00000000
  31        -0.00000000
  32        -0.00000000
  33        -0.00000000
  34         0.00000000
  35         0.00000000
  36         0.00000000
  37        -0.00000000
  38        -0.00000000
  39        -0.00000000
  40         0.00000000
  41         0.00000000
  42         0.79559413
  43         0.07677412
  44        -0.21836679
  45         1.06517413
  46        -0.31593106
  47        -0.65212317
  48        -0.06292930
  49         0.17898830
  50        -0.87308932
  51         0.25895863
  52         0.31074563
  53         0.02998667
  54        -0.08529038
  55         0.41603903
  56        -0.12339734
  57        -0.10197117
  58        -0.00984013
  59         0.02798804
  60        -0.13652319
  61         0.04049283
Sym=    46a  
Ene=     5.6385
Spin= Alpha
Occup=    0.00000
   1         0.00000000
   2         0.00000000
   3         0.00000000
   4         0.00000000
   5         0.00000000
   6         0.00000002
   7         0.00000009
   8         0.00000035
   9        -0.00000172
  10         0.00000257
  11        -0.00000182
  12         0.00000089
  13        -0.00000044
  14         0.00000011
  15         0.02304883
  16        -0.00011636
  17        -0.01017259
  18        -0.07017533
  19         0.00035428
  20         0.03097186
  21         1.35514856
  22        -0.00684137
  23        -0.59809435
  24        -3.12566912
  25         0.01577973
  26         1.37951299
  27         2.85003857
  28        -0.01438822
  29        -1.25786354
  30        -1.76035655
  31         0.00888704
  32         0.77693276
  33         1.01108828
  34        -0.00510441
  35        -0.44624346
  36        -0.42360828
  37         0.00213856
  38         0.18695937
  39         0.11045043
  40        -0.00055760
  41        -0.04874726
  42        -0.00000000
  43        -0.00000000
  44        -0.00000000
  45         0.00000000
  46         0.00000000
  47         0.00000000
  48         0.00000000
  49         0.00000000
  50        -0.00000000
  51        -0.00000000
  52        -0.00000000
  53        -0.00000000
  54        -0.00000000
  55         0.00000000
  56         0.00000000
  57         0.00000000
  58         0.00000000
  59        -0.00000000
  60        -0.00000000
  61         0.00000000
Sym=    47a  
Ene=     5.6385
Spin= Alpha
Occup=    0.00000
   1        -0.00000000
   2         0.00000000
   3        -0.00000000
   4         0.00000000
   5        -0.00000000
   6         0.00000000
   7        -0.00000001
   8         0.00000005
   9        -0.00000008
  10         0.00000006
  11        -0.00000002
  12         0.00000001
  13        -0.00000001
  14         0.00000000
  15         0.00997679
  16        -0.00466857
  17         0.02265859
  18        -0.03037572
  19         0.01421412
  20        -0.06898720
  21         0.58658232
  22        -0.27448740
  23         1.33220462
  24        -1.35296032
  25         0.63310903
  26        -3.07274858
  27         1.23365237
  28        -0.57727965
  29         2.80178472
  30        -0.76197847
  31         0.35656289
  32        -1.73055205
  33         0.43765423
  34        -0.20479747
  35         0.99396959
  36        -0.18336080
  37         0.08580250
  38        -0.41643619
  39         0.04780898
  40        -0.02237190
  41         0.10858040
  42        -0.00000000
  43         0.00000000
  44         0.00000000
  45         0.00000000
  46         0.00000000
  47         0.00000000
  48        -0.00000000
  49        -0.00000000
  50        -0.00000000
  51        -0.00000000
  52         0.00000000
  53         0.00000000
  54         0.00000000
  55         0.00000000
  56         0.00000000
  57         0.00000000
  58        -0.00000000
  59        -0.00000000
  60        -0.00000000
  61         0.00000000
Sym=    48a  
Ene=     5.6385
Spin= Alpha
Occup=    0.00000
   1         0.00000000
   2         0.00000000
   3        -0.00000000
   4         0.00000000
   5        -0.00000000
   6         0.00000001
   7        -0.00000001
   8         0.00000018
   9        -0.00000055
  10         0.00000068
  11        -0.00000040
  12         0.00000019
  13        -0.00000012
  14         0.00000003
  15         0.00198967
  16         0.02475751
  17         0.00422497
  18        -0.00605784
  19        -0.07537767
  20        -0.01286349
  21         0.11698223
  22         1.45561025
  23         0.24840551
  24        -0.26982116
  25        -3.35738537
  26        -0.57295077
  27         0.24602755
  28         3.06132142
  29         0.52242632
  30        -0.15196152
  31        -1.89085762
  32        -0.32268215
  33         0.08728147
  34         1.08604361
  35         0.18533754
  36        -0.03656768
  37        -0.45501177
  38        -0.07764952
  39         0.00953455
  40         0.11863847
  41         0.02024611
  42        -0.00000000
  43         0.00000000
  44         0.00000000
  45        -0.00000000
  46         0.00000000
  47         0.00000000
  48        -0.00000000
  49        -0.00000000
  50         0.00000000
  51        -0.00000000
  52        -0.00000000
  53         0.00000000
  54         0.00000000
  55        -0.00000000
  56         0.00000000
  57         0.00000000
  58        -0.00000000
  59         0.00000000
  60        -0.00000000
  61        -0.00000000
Sym=    49a  
Ene=    16.7600
Spin= Alpha
Occup=    0.00000
   1         0.00010322
   2        -0.00045130
   3         0.00728995
   4        -0.02291841
   5         0.17344817
   6        -0.48565620
   7         3.20845413
   8        -7.03851071
   9         7.57620121
  10        -5.09222729
  11         2.94949109
  12        -1.56273599
  13         0.59917238
  14        -0.15150964
  15        -0.00000001
  16        -0.00000000
  17         0.00000001
  18         0.00000027
  19         0.00000001
  20        -0.00000015
  21        -0.00000078
  22        -0.00000003
  23         0.00000041
  24         0.00000062
  25         0.00000002
  26        -0.00000033
  27        -0.00000046
  28        -0.00000003
  29         0.00000023
  30         0.00000017
  31        -0.00000002
  32        -0.00000011
  33        -0.00000018
  34        -0.00000002
  35         0.00000009
  36         0.00000006
  37         0.00000000
  38        -0.00000003
  39        -0.00000002
  40        -0.00000000
  41         0.00000001
  42         0.00000000
  43        -0.00000000
  44        -0.00000000
  45         0.00000000
  46        -0.00000000
  47        -0.00000000
  48         0.00000000
  49         0.00000000
  50        -0.00000000
  51         0.00000000
  52         0.00000000
  53        -0.00000000
  54        -0.00000000
  55         0.00000000
  56        -0.00000000
  57        -0.00000000
  58        -0.00000000
  59        -0.00000000
  60        -0.00000000
  61        -0.00000000
Sym=    50a  
Ene=    21.8830
Spin= Alpha
Occup=    0.00000
   1        -0.00000000
   2         0.00000000
   3        -0.00000000
   4         0.00000000
   5        -0.00000004
   6         0.00000008
   7        -0.00000075
   8         0.00000186
   9        -0.00000226
  10         0.00000172
  11        -0.00000101
  12         0.00000052
  13        -0.00000023
  14         0.00000006
  15        -0.05899218
  16         0.00052052
  17         0.02214076
  18         1.57600353
  19        -0.01390584
  20        -0.59150079
  21        -2.58165313
  22         0.02277918
  23         0.96893810
  24         1.97612226
  25        -0.01743629
  26        -0.74167212
  27        -1.27584897
  28         0.01125743
  29         0.47884770
  30         0.80476518
  31        -0.00710083
  32        -0.30204199
  33        -0.41083065
  34         0.00362496
  35         0.15419169
  36         0.18706138
  37        -0.00165053
  38        -0.07020730
  39        -0.04913146
  40         0.00043351
  41         0.01843987
  42        -0.00000000
  43        -0.00000000
  44        -0.00000000
  45         0.00000000
  46         0.00000000
  47         0.00000000
  48        -0.00000000
  49         0.00000000
  50        -0.00000000
  51        -0.00000000
  52        -0.00000000
  53         0.00000000
  54        -0.00000000
  55         0.00000000
  56         0.00000000
  57        -0.00000000
  58         0.00000000
  59        -0.00000000
  60         0.00000000
  61         0.00000000
Sym=    51a  
Ene=    21.8830
Spin= Alpha
Occup=    0.00000
   1         0.00000000
   2        -0.00000000
   3         0.00000000
   4        -0.00000000
   5         0.00000001
   6        -0.00000002
   7         0.00000011
   8        -0.00000024
   9         0.00000027
  10        -0.00000020
  11         0.00000013
  12        -0.00000007
  13         0.00000002
  14        -0.00000001
  15        -0.02194633
  16         0.00708456
  17        -0.05864068
  18         0.58630637
  19        -0.18926745
  20         1.56661302
  21        -0.96042912
  22         0.31003922
  23        -2.56627052
  24         0.73515893
  25        -0.23731903
  26         1.96434767
  27        -0.47464258
  28         0.15322090
  29        -1.26824691
  30         0.29938953
  31        -0.09664690
  32         0.79997004
  33        -0.15283762
  34         0.04933801
  35        -0.40838274
  36         0.06959076
  37        -0.02246482
  38         0.18594679
  39        -0.01827793
  40         0.00590036
  41        -0.04883871
  42         0.00000000
  43         0.00000000
  44         0.00000000
  45         0.00000000
  46         0.00000000
  47        -0.00000000
  48        -0.00000000
  49        -0.00000000
  50        -0.00000000
  51        -0.00000000
  52         0.00000000
  53         0.00000000
  54         0.00000000
  55         0.00000000
  56         0.00000000
  57         0.00000000
  58         0.00000000
  59         0.00000000
  60         0.00000000
  61         0.00000000
Sym=    52a  
Ene=    21.8830
Spin= Alpha
Occup=    0.00000
   1         0.00000000
   2        -0.00000000
   3         0.00000000
   4        -0.00000000
   5         0.00000000
   6        -0.00000001
   7         0.00000001
   8         0.00000005
   9        -0.00000012
  10         0.00000010
  11        -0.00000003
  12         0.00000001
  13        -0.00000002
  14         0.00000001
  15        -0.00297372
  16        -0.06261070
  17        -0.00645128
  18         0.07944428
  19         1.67267396
  20         0.17234892
  21        -0.13013776
  22        -2.74000903
  23        -0.28232495
  24         0.09961374
  25         2.09733553
  26         0.21610518
  27        -0.06431388
  28        -1.35410820
  29        -0.13952455
  30         0.04056716
  31         0.85412864
  32         0.08800767
  33        -0.02070944
  34        -0.43603057
  35        -0.04492770
  36         0.00942952
  37         0.19853553
  38         0.02045670
  39        -0.00247665
  40        -0.05214513
  41        -0.00537293
  42        -0.00000000
  43         0.00000000
  44         0.00000000
  45        -0.00000000
  46         0.00000000
  47         0.00000000
  48        -0.00000000
  49        -0.00000000
  50         0.00000000
  51        -0.00000000
  52        -0.00000000
  53         0.00000000
  54         0.00000000
  55        -0.00000000
  56         0.00000000
  57        -0.00000000
  58         0.00000000
  59         0.00000000
  60        -0.00000000
  61         0.00000000
