[MOLDEN FORMAT]
[N_ATOMS]
                    1
[ATOMS] (AU)
BE          1      4           0.00000000      0.00000000      0.00000000
[5D]
[CHARGE] (MULLIKEN)
   0.0000000000000000     
[GTO] (AU)
   1
   s   1
  0.227643706E+05  0.100000000E+01
   s   1
  0.339255201E+04  0.100000000E+01
   s   1
  0.764912502E+03  0.100000000E+01
   s   1
  0.213010923E+03  0.100000000E+01
   s   1
  0.676268088E+02  0.100000000E+01
   s   1
  0.235124101E+02  0.100000000E+01
   s   1
  0.877370124E+01  0.100000000E+01
   s   1
  0.348889955E+01  0.100000000E+01
   s   1
  0.146085686E+01  0.100000000E+01
   s   1
  0.612266690E+00  0.100000000E+01
   s   1
  0.259232116E+00  0.100000000E+01
   s   1
  0.104801056E+00  0.100000000E+01
   s   1
  0.426815620E-01  0.100000000E+01
   s   1
  0.149380940E-01  0.100000000E+01
   p   1
  0.337101840E+02  0.100000000E+01
   p   1
  0.805764950E+01  0.100000000E+01
   p   1
  0.283647140E+01  0.100000000E+01
   p   1
  0.109996570E+01  0.100000000E+01
   p   1
  0.443396400E+00  0.100000000E+01
   p   1
  0.182226400E+00  0.100000000E+01
   p   1
  0.757241000E-01  0.100000000E+01
   p   1
  0.316854000E-01  0.100000000E+01
   p   1
  0.110899000E-01  0.100000000E+01
   d   1
  0.140000000E+01  0.100000000E+01
   d   1
  0.490000000E+00  0.100000000E+01
   d   1
  0.171500000E+00  0.100000000E+01
   d   1
  0.600250000E-01  0.100000000E+01
 
[MO]
Sym=     1a  
Ene=    -4.7332
Spin= Alpha
Occup=    2.00000
   1         0.00008395
   2         0.00045688
   3         0.00226905
   4         0.00957709
   5         0.03470169
   6         0.10544567
   7         0.24469683
   8         0.38557370
   9         0.31212466
  10         0.06539576
  11        -0.00229482
  12        -0.00048682
  13        -0.00089723
  14         0.00012707
  15         0.00000000
  16        -0.00000000
  17         0.00000000
  18        -0.00000000
  19        -0.00000000
  20        -0.00000000
  21         0.00000000
  22        -0.00000000
  23         0.00000000
  24         0.00000000
  25        -0.00000000
  26        -0.00000000
  27        -0.00000000
  28        -0.00000000
  29        -0.00000000
  30         0.00000000
  31        -0.00000000
  32         0.00000000
  33         0.00000000
  34        -0.00000000
  35         0.00000000
  36        -0.00000000
  37        -0.00000000
  38        -0.00000000
  39         0.00000000
  40        -0.00000000
  41         0.00000000
  42        -0.00000000
  43         0.00000000
  44         0.00000000
  45         0.00000000
  46         0.00000000
  47         0.00000000
  48        -0.00000000
  49        -0.00000000
  50        -0.00000000
  51        -0.00000000
  52        -0.00000000
  53         0.00000000
  54         0.00000000
  55         0.00000000
  56         0.00000000
  57         0.00000000
  58        -0.00000000
  59        -0.00000000
  60        -0.00000000
  61        -0.00000000
Sym=     2a  
Ene=    -0.3093
Spin= Alpha
Occup=    2.00000
   1        -0.00001585
   2        -0.00008565
   3        -0.00042811
   4        -0.00180892
   5        -0.00664211
   6        -0.02079971
   7        -0.05176248
   8        -0.09805510
   9        -0.13561171
  10        -0.06552106
  11         0.30906243
  12         0.62763392
  13         0.21418098
  14        -0.00400225
  15         0.00000000
  16        -0.00000000
  17         0.00000000
  18        -0.00000000
  19        -0.00000000
  20        -0.00000000
  21         0.00000000
  22        -0.00000000
  23         0.00000000
  24         0.00000000
  25        -0.00000000
  26         0.00000000
  27        -0.00000000
  28        -0.00000000
  29        -0.00000000
  30         0.00000000
  31        -0.00000000
  32         0.00000000
  33         0.00000000
  34        -0.00000000
  35        -0.00000000
  36        -0.00000000
  37        -0.00000000
  38         0.00000000
  39         0.00000000
  40        -0.00000000
  41        -0.00000000
  42         0.00000000
  43        -0.00000000
  44         0.00000000
  45        -0.00000000
  46        -0.00000000
  47         0.00000000
  48         0.00000000
  49         0.00000000
  50         0.00000000
  51         0.00000000
  52         0.00000000
  53        -0.00000000
  54        -0.00000000
  55        -0.00000000
  56        -0.00000000
  57         0.00000000
  58         0.00000000
  59         0.00000000
  60         0.00000000
  61         0.00000000
Sym=     3a  
Ene=     3.0243
Spin= Alpha
Occup=    0.00000
   1         0.00000000
   2         0.00000000
   3         0.00000000
   4         0.00000000
   5         0.00000000
   6         0.00000000
   7         0.00000000
   8         0.00000000
   9         0.00000000
  10         0.00000000
  11        -0.00000000
  12        -0.00000000
  13        -0.00000000
  14         0.00000000
  15         0.00000000
  16        -0.00000000
  17         0.00005414
  18        -0.00000000
  19        -0.00000000
  20        -0.00048381
  21         0.00000000
  22        -0.00000000
  23         0.00233991
  24         0.00000000
  25        -0.00000000
  26        -0.00853733
  27        -0.00000000
  28        -0.00000000
  29         0.02698798
  30         0.00000000
  31        -0.00000000
  32        -0.07842331
  33         0.00000000
  34        -0.00000000
  35         0.21105341
  36        -0.00000000
  37        -0.00000000
  38        -0.48537986
  39         0.00000000
  40        -0.00000000
  41         1.25839548
  42        -0.00000000
  43         0.00000000
  44        -0.00000000
  45        -0.00000000
  46         0.00000000
  47        -0.00000000
  48        -0.00000000
  49        -0.00000000
  50         0.00000000
  51        -0.00000000
  52        -0.00000000
  53         0.00000000
  54         0.00000000
  55        -0.00000000
  56         0.00000000
  57        -0.00000000
  58        -0.00000000
  59        -0.00000000
  60         0.00000000
  61        -0.00000000
Sym=     4a  
Ene=     3.0243
Spin= Alpha
Occup=    0.00000
   1         0.00000000
   2         0.00000000
   3         0.00000000
   4         0.00000000
   5         0.00000000
   6         0.00000000
   7         0.00000000
   8         0.00000000
   9         0.00000000
  10         0.00000000
  11         0.00000000
  12         0.00000000
  13         0.00000000
  14        -0.00000000
  15         0.00000000
  16         0.00005414
  17         0.00000000
  18        -0.00000000
  19        -0.00048381
  20        -0.00000000
  21         0.00000000
  22         0.00233991
  23         0.00000000
  24         0.00000000
  25        -0.00853733
  26         0.00000000
  27        -0.00000000
  28         0.02698798
  29        -0.00000000
  30         0.00000000
  31        -0.07842331
  32         0.00000000
  33         0.00000000
  34         0.21105341
  35        -0.00000000
  36        -0.00000000
  37        -0.48537986
  38         0.00000000
  39         0.00000000
  40         1.25839548
  41        -0.00000000
  42        -0.00000000
  43        -0.00000000
  44         0.00000000
  45         0.00000000
  46        -0.00000000
  47         0.00000000
  48         0.00000000
  49        -0.00000000
  50        -0.00000000
  51         0.00000000
  52        -0.00000000
  53        -0.00000000
  54        -0.00000000
  55         0.00000000
  56        -0.00000000
  57         0.00000000
  58         0.00000000
  59         0.00000000
  60        -0.00000000
  61         0.00000000
Sym=     5a  
Ene=     3.0243
Spin= Alpha
Occup=    0.00000
   1        -0.00000000
   2        -0.00000000
   3        -0.00000000
   4        -0.00000000
   5        -0.00000000
   6        -0.00000000
   7        -0.00000000
   8        -0.00000000
   9        -0.00000000
  10        -0.00000000
  11        -0.00000000
  12        -0.00000000
  13        -0.00000000
  14         0.00000000
  15         0.00005414
  16         0.00000000
  17        -0.00000000
  18        -0.00048381
  19         0.00000000
  20         0.00000000
  21         0.00233991
  22         0.00000000
  23        -0.00000000
  24        -0.00853733
  25         0.00000000
  26         0.00000000
  27         0.02698798
  28         0.00000000
  29         0.00000000
  30        -0.07842331
  31         0.00000000
  32        -0.00000000
  33         0.21105341
  34         0.00000000
  35         0.00000000
  36        -0.48537986
  37         0.00000000
  38         0.00000000
  39         1.25839548
  40         0.00000000
  41        -0.00000000
  42         0.00000000
  43        -0.00000000
  44        -0.00000000
  45        -0.00000000
  46         0.00000000
  47        -0.00000000
  48         0.00000000
  49         0.00000000
  50         0.00000000
  51         0.00000000
  52         0.00000000
  53        -0.00000000
  54        -0.00000000
  55        -0.00000000
  56         0.00000000
  57        -0.00000000
  58        -0.00000000
  59        -0.00000000
  60         0.00000000
  61         0.00000000
Sym=     6a  
Ene=     3.0388
Spin= Alpha
Occup=    0.00000
   1        -0.00000018
   2         0.00000216
   3        -0.00001536
   4         0.00008362
   5        -0.00036090
   6         0.00154454
   7        -0.00462391
   8         0.01984135
   9        -0.03789132
  10         0.14614230
  11        -0.27963800
  12         0.67013030
  13        -1.83510740
  14         1.93549951
  15         0.00000000
  16         0.00000000
  17         0.00000000
  18         0.00000000
  19        -0.00000000
  20        -0.00000000
  21         0.00000000
  22         0.00000000
  23         0.00000000
  24         0.00000000
  25        -0.00000000
  26         0.00000000
  27         0.00000000
  28         0.00000000
  29        -0.00000000
  30        -0.00000000
  31        -0.00000000
  32         0.00000000
  33         0.00000000
  34         0.00000000
  35        -0.00000000
  36        -0.00000000
  37        -0.00000000
  38         0.00000000
  39         0.00000000
  40        -0.00000000
  41        -0.00000000
  42        -0.00000000
  43         0.00000000
  44        -0.00000000
  45        -0.00000000
  46        -0.00000000
  47         0.00000000
  48        -0.00000000
  49         0.00000000
  50         0.00000000
  51         0.00000000
  52        -0.00000000
  53         0.00000000
  54        -0.00000000
  55        -0.00000000
  56         0.00000000
  57         0.00000000
  58        -0.00000000
  59         0.00000000
  60        -0.00000000
  61        -0.00000000
Sym=     7a  
Ene=     3.0954
Spin= Alpha
Occup=    0.00000
   1         0.00000000
   2         0.00000000
   3         0.00000000
   4         0.00000000
   5         0.00000000
   6         0.00000000
   7         0.00000000
   8         0.00000000
   9         0.00000000
  10         0.00000000
  11        -0.00000000
  12        -0.00000000
  13        -0.00000000
  14         0.00000000
  15        -0.00000000
  16         0.00000000
  17        -0.00017520
  18         0.00000000
  19         0.00000000
  20         0.00156768
  21        -0.00000000
  22         0.00000000
  23        -0.00760347
  24        -0.00000000
  25         0.00000000
  26         0.02792513
  27         0.00000000
  28         0.00000000
  29        -0.08961760
  30        -0.00000000
  31         0.00000000
  32         0.26936035
  33        -0.00000000
  34         0.00000000
  35        -0.77967746
  36         0.00000000
  37         0.00000000
  38         2.05621769
  39        -0.00000000
  40         0.00000000
  41        -1.01234483
  42        -0.00000000
  43         0.00000000
  44        -0.00000000
  45        -0.00000000
  46         0.00000000
  47        -0.00000000
  48        -0.00000000
  49        -0.00000000
  50         0.00000000
  51        -0.00000000
  52        -0.00000000
  53         0.00000000
  54         0.00000000
  55        -0.00000000
  56         0.00000000
  57        -0.00000000
  58        -0.00000000
  59        -0.00000000
  60         0.00000000
  61        -0.00000000
Sym=     8a  
Ene=     3.0954
Spin= Alpha
Occup=    0.00000
   1         0.00000000
   2         0.00000000
   3         0.00000000
   4         0.00000000
   5         0.00000000
   6         0.00000000
   7         0.00000000
   8         0.00000000
   9         0.00000000
  10         0.00000000
  11         0.00000000
  12         0.00000000
  13         0.00000000
  14        -0.00000000
  15         0.00000000
  16        -0.00017520
  17         0.00000000
  18        -0.00000000
  19         0.00156768
  20        -0.00000000
  21         0.00000000
  22        -0.00760347
  23         0.00000000
  24         0.00000000
  25         0.02792513
  26         0.00000000
  27        -0.00000000
  28        -0.08961760
  29        -0.00000000
  30         0.00000000
  31         0.26936035
  32         0.00000000
  33         0.00000000
  34        -0.77967746
  35        -0.00000000
  36        -0.00000000
  37         2.05621769
  38         0.00000000
  39         0.00000000
  40        -1.01234483
  41        -0.00000000
  42        -0.00000000
  43        -0.00000000
  44         0.00000000
  45         0.00000000
  46        -0.00000000
  47         0.00000000
  48         0.00000000
  49        -0.00000000
  50        -0.00000000
  51         0.00000000
  52        -0.00000000
  53        -0.00000000
  54        -0.00000000
  55         0.00000000
  56        -0.00000000
  57         0.00000000
  58         0.00000000
  59         0.00000000
  60        -0.00000000
  61         0.00000000
Sym=     9a  
Ene=     3.0954
Spin= Alpha
Occup=    0.00000
   1         0.00000000
   2         0.00000000
   3         0.00000000
   4         0.00000000
   5         0.00000000
   6         0.00000000
   7         0.00000000
   8         0.00000000
   9         0.00000000
  10         0.00000000
  11         0.00000000
  12         0.00000000
  13         0.00000000
  14        -0.00000000
  15        -0.00017520
  16        -0.00000000
  17         0.00000000
  18         0.00156768
  19        -0.00000000
  20        -0.00000000
  21        -0.00760347
  22        -0.00000000
  23         0.00000000
  24         0.02792513
  25        -0.00000000
  26         0.00000000
  27        -0.08961760
  28        -0.00000000
  29        -0.00000000
  30         0.26936035
  31        -0.00000000
  32         0.00000000
  33        -0.77967746
  34        -0.00000000
  35        -0.00000000
  36         2.05621769
  37        -0.00000000
  38         0.00000000
  39        -1.01234483
  40        -0.00000000
  41        -0.00000000
  42        -0.00000000
  43        -0.00000000
  44         0.00000000
  45         0.00000000
  46        -0.00000000
  47         0.00000000
  48         0.00000000
  49        -0.00000000
  50        -0.00000000
  51         0.00000000
  52        -0.00000000
  53        -0.00000000
  54        -0.00000000
  55         0.00000000
  56        -0.00000000
  57         0.00000000
  58         0.00000000
  59         0.00000000
  60        -0.00000000
  61         0.00000000
Sym=    10a  
Ene=     3.1944
Spin= Alpha
Occup=    0.00000
   1        -0.00000000
   2        -0.00000000
   3        -0.00000000
   4        -0.00000000
   5         0.00000000
   6        -0.00000000
   7         0.00000000
   8        -0.00000000
   9         0.00000000
  10        -0.00000000
  11         0.00000000
  12        -0.00000000
  13         0.00000000
  14        -0.00000000
  15        -0.00000000
  16         0.00000000
  17        -0.00000000
  18         0.00000000
  19         0.00000000
  20         0.00000000
  21        -0.00000000
  22         0.00000000
  23        -0.00000000
  24        -0.00000000
  25         0.00000000
  26         0.00000000
  27         0.00000000
  28         0.00000000
  29         0.00000000
  30        -0.00000000
  31         0.00000000
  32         0.00000000
  33        -0.00000000
  34        -0.00000000
  35        -0.00000000
  36         0.00000000
  37         0.00000000
  38         0.00000000
  39        -0.00000000
  40         0.00000000
  41        -0.00000000
  42        -0.01143111
  43         0.00507512
  44         0.00197491
  45         0.00074092
  46        -0.00000000
  47         0.05844743
  48        -0.02594916
  49        -0.01009775
  50        -0.00378831
  51         0.00000000
  52        -0.24543598
  53         0.10896727
  54         0.04240306
  55         0.01590811
  56        -0.00000000
  57         1.03110660
  58        -0.45778483
  59        -0.17814047
  60        -0.06683191
  61         0.00000000
Sym=    11a  
Ene=     3.1944
Spin= Alpha
Occup=    0.00000
   1         0.00000000
   2         0.00000000
   3        -0.00000000
   4         0.00000000
   5        -0.00000000
   6         0.00000000
   7        -0.00000000
   8         0.00000000
   9        -0.00000000
  10         0.00000000
  11        -0.00000000
  12         0.00000000
  13        -0.00000000
  14         0.00000000
  15         0.00000000
  16        -0.00000000
  17         0.00000000
  18        -0.00000000
  19        -0.00000000
  20        -0.00000000
  21         0.00000000
  22        -0.00000000
  23         0.00000000
  24         0.00000000
  25        -0.00000000
  26         0.00000000
  27        -0.00000000
  28        -0.00000000
  29        -0.00000000
  30         0.00000000
  31        -0.00000000
  32         0.00000000
  33         0.00000000
  34         0.00000000
  35        -0.00000000
  36        -0.00000000
  37        -0.00000000
  38         0.00000000
  39         0.00000000
  40        -0.00000000
  41        -0.00000000
  42        -0.00082334
  43        -0.00000558
  44        -0.00000287
  45        -0.01265695
  46        -0.00000000
  47         0.00420976
  48         0.00002853
  49         0.00001470
  50         0.06471517
  51         0.00000000
  52        -0.01767790
  53        -0.00011979
  54        -0.00006172
  55        -0.27175586
  56        -0.00000000
  57         0.07426701
  58         0.00050324
  59         0.00025930
  60         1.14167964
  61         0.00000001
Sym=    12a  
Ene=     3.1944
Spin= Alpha
Occup=    0.00000
   1        -0.00000000
   2         0.00000000
   3        -0.00000000
   4         0.00000000
   5        -0.00000000
   6         0.00000000
   7        -0.00000000
   8         0.00000000
   9        -0.00000000
  10         0.00000000
  11        -0.00000000
  12         0.00000000
  13        -0.00000000
  14         0.00000000
  15        -0.00000000
  16         0.00000000
  17        -0.00000000
  18         0.00000000
  19         0.00000000
  20         0.00000000
  21        -0.00000000
  22         0.00000000
  23        -0.00000000
  24        -0.00000000
  25         0.00000000
  26        -0.00000000
  27         0.00000000
  28         0.00000000
  29         0.00000000
  30        -0.00000000
  31         0.00000000
  32        -0.00000000
  33        -0.00000000
  34         0.00000000
  35         0.00000000
  36         0.00000000
  37         0.00000000
  38        -0.00000000
  39        -0.00000000
  40         0.00000000
  41         0.00000000
  42         0.00000000
  43         0.00000000
  44         0.00000000
  45         0.00000000
  46        -0.01268370
  47        -0.00000000
  48        -0.00000000
  49        -0.00000000
  50        -0.00000000
  51         0.06485196
  52         0.00000000
  53         0.00000000
  54         0.00000000
  55         0.00000000
  56        -0.27233027
  57        -0.00000000
  58        -0.00000000
  59        -0.00000000
  60        -0.00000001
  61         1.14409279
Sym=    13a  
Ene=     3.1944
Spin= Alpha
Occup=    0.00000
   1         0.00000000
   2        -0.00000000
   3         0.00000000
   4        -0.00000000
   5         0.00000000
   6        -0.00000000
   7         0.00000000
   8        -0.00000000
   9         0.00000000
  10        -0.00000000
  11         0.00000000
  12        -0.00000000
  13         0.00000000
  14        -0.00000000
  15        -0.00000000
  16         0.00000000
  17        -0.00000000
  18         0.00000000
  19         0.00000000
  20         0.00000000
  21        -0.00000000
  22        -0.00000000
  23        -0.00000000
  24        -0.00000000
  25         0.00000000
  26        -0.00000000
  27         0.00000000
  28        -0.00000000
  29         0.00000000
  30        -0.00000000
  31         0.00000000
  32        -0.00000000
  33        -0.00000000
  34        -0.00000000
  35         0.00000000
  36         0.00000000
  37         0.00000000
  38        -0.00000000
  39        -0.00000000
  40         0.00000000
  41         0.00000000
  42        -0.00093001
  43         0.00270469
  44        -0.01235686
  45         0.00006211
  46         0.00000000
  47         0.00475516
  48        -0.01382914
  49         0.06318084
  50        -0.00031758
  51        -0.00000000
  52        -0.01996814
  53         0.05807214
  54        -0.26531283
  55         0.00133360
  56         0.00000000
  57         0.08388859
  58        -0.24396818
  59         1.11461166
  60        -0.00560262
  61        -0.00000000
Sym=    14a  
Ene=     3.1944
Spin= Alpha
Occup=    0.00000
   1        -0.00000000
   2        -0.00000000
   3        -0.00000000
   4         0.00000000
   5        -0.00000000
   6         0.00000000
   7         0.00000000
   8        -0.00000000
   9         0.00000000
  10        -0.00000000
  11         0.00000000
  12        -0.00000000
  13        -0.00000000
  14         0.00000000
  15        -0.00000000
  16         0.00000000
  17        -0.00000000
  18         0.00000000
  19         0.00000000
  20         0.00000000
  21        -0.00000000
  22         0.00000000
  23        -0.00000000
  24        -0.00000000
  25         0.00000000
  26        -0.00000000
  27         0.00000000
  28         0.00000000
  29         0.00000000
  30        -0.00000000
  31         0.00000000
  32        -0.00000000
  33        -0.00000000
  34         0.00000000
  35         0.00000000
  36         0.00000000
  37         0.00000000
  38        -0.00000000
  39        -0.00000000
  40         0.00000000
  41         0.00000000
  42        -0.00535381
  43        -0.01130504
  44        -0.00206975
  45         0.00035372
  46         0.00000000
  47         0.02737409
  48         0.05780287
  49         0.01058266
  50        -0.00180858
  51        -0.00000000
  52        -0.11495094
  53        -0.24272932
  54        -0.04443934
  55         0.00759472
  56         0.00000000
  57         0.48292297
  58         1.01973557
  59         0.18669511
  60        -0.03190634
  61        -0.00000000
Sym=    15a  
Ene=     3.2538
Spin= Alpha
Occup=    0.00000
   1         0.00000084
   2        -0.00001029
   3         0.00007383
   4        -0.00039284
   5         0.00180409
   6        -0.00667662
   7         0.02723633
   8        -0.07109828
   9         0.27070825
  10        -0.55043630
  11         1.73190570
  12        -4.32939467
  13         4.39400336
  14        -1.39534232
  15        -0.00000000
  16         0.00000000
  17        -0.00000000
  18         0.00000000
  19         0.00000000
  20         0.00000000
  21        -0.00000000
  22         0.00000000
  23        -0.00000000
  24        -0.00000000
  25         0.00000000
  26        -0.00000000
  27         0.00000000
  28         0.00000000
  29         0.00000000
  30        -0.00000000
  31         0.00000000
  32        -0.00000000
  33        -0.00000000
  34        -0.00000000
  35         0.00000000
  36         0.00000000
  37         0.00000000
  38        -0.00000000
  39        -0.00000000
  40         0.00000000
  41         0.00000000
  42         0.00000000
  43        -0.00000000
  44         0.00000000
  45        -0.00000000
  46        -0.00000000
  47        -0.00000000
  48         0.00000000
  49        -0.00000000
  50         0.00000000
  51         0.00000000
  52         0.00000000
  53         0.00000000
  54         0.00000000
  55        -0.00000000
  56        -0.00000000
  57         0.00000000
  58        -0.00000000
  59        -0.00000000
  60         0.00000000
  61         0.00000000
Sym=    16a  
Ene=     3.2725
Spin= Alpha
Occup=    0.00000
   1        -0.00000000
   2        -0.00000000
   3        -0.00000000
   4        -0.00000000
   5        -0.00000000
   6        -0.00000000
   7        -0.00000000
   8        -0.00000000
   9        -0.00000000
  10        -0.00000000
  11         0.00000000
  12         0.00000000
  13         0.00000000
  14        -0.00000000
  15         0.00000000
  16        -0.00000000
  17         0.00048206
  18        -0.00000000
  19        -0.00000000
  20        -0.00432606
  21         0.00000000
  22        -0.00000000
  23         0.02112083
  24         0.00000000
  25        -0.00000000
  26        -0.07873550
  27        -0.00000000
  28        -0.00000000
  29         0.26110420
  30         0.00000000
  31        -0.00000000
  32        -0.83986870
  33         0.00000000
  34        -0.00000000
  35         2.70051420
  36        -0.00000000
  37        -0.00000000
  38        -2.09522173
  39         0.00000000
  40        -0.00000000
  41         0.62439656
  42         0.00000000
  43        -0.00000000
  44        -0.00000000
  45        -0.00000000
  46        -0.00000000
  47        -0.00000000
  48         0.00000000
  49         0.00000000
  50         0.00000000
  51         0.00000000
  52         0.00000000
  53        -0.00000000
  54        -0.00000000
  55        -0.00000000
  56        -0.00000000
  57        -0.00000000
  58         0.00000000
  59         0.00000000
  60         0.00000000
  61         0.00000000
Sym=    17a  
Ene=     3.2725
Spin= Alpha
Occup=    0.00000
   1         0.00000000
   2         0.00000000
   3         0.00000000
   4         0.00000000
   5         0.00000000
   6         0.00000000
   7         0.00000000
   8         0.00000000
   9         0.00000000
  10         0.00000000
  11         0.00000000
  12         0.00000000
  13         0.00000000
  14        -0.00000000
  15         0.00000000
  16         0.00048206
  17         0.00000000
  18        -0.00000000
  19        -0.00432606
  20        -0.00000000
  21         0.00000000
  22         0.02112083
  23         0.00000000
  24         0.00000000
  25        -0.07873550
  26         0.00000000
  27        -0.00000000
  28         0.26110420
  29        -0.00000000
  30         0.00000000
  31        -0.83986870
  32         0.00000000
  33         0.00000000
  34         2.70051420
  35        -0.00000000
  36        -0.00000000
  37        -2.09522173
  38         0.00000000
  39         0.00000000
  40         0.62439656
  41        -0.00000000
  42        -0.00000000
  43        -0.00000000
  44         0.00000000
  45         0.00000000
  46        -0.00000000
  47         0.00000000
  48         0.00000000
  49        -0.00000000
  50        -0.00000000
  51         0.00000000
  52        -0.00000000
  53        -0.00000000
  54        -0.00000000
  55         0.00000000
  56        -0.00000000
  57         0.00000000
  58         0.00000000
  59         0.00000000
  60        -0.00000000
  61         0.00000000
Sym=    18a  
Ene=     3.2725
Spin= Alpha
Occup=    0.00000
   1        -0.00000000
   2        -0.00000000
   3        -0.00000000
   4        -0.00000000
   5        -0.00000000
   6        -0.00000000
   7        -0.00000000
   8        -0.00000000
   9        -0.00000000
  10        -0.00000000
  11        -0.00000000
  12        -0.00000000
  13        -0.00000000
  14         0.00000000
  15         0.00048206
  16         0.00000000
  17        -0.00000000
  18        -0.00432606
  19         0.00000000
  20         0.00000000
  21         0.02112083
  22         0.00000000
  23        -0.00000000
  24        -0.07873550
  25         0.00000000
  26        -0.00000000
  27         0.26110420
  28         0.00000000
  29         0.00000000
  30        -0.83986870
  31         0.00000000
  32        -0.00000000
  33         2.70051420
  34         0.00000000
  35         0.00000000
  36        -2.09522173
  37         0.00000000
  38         0.00000000
  39         0.62439656
  40         0.00000000
  41        -0.00000000
  42         0.00000000
  43        -0.00000000
  44        -0.00000000
  45        -0.00000000
  46         0.00000000
  47        -0.00000000
  48         0.00000000
  49         0.00000000
  50         0.00000000
  51        -0.00000000
  52         0.00000000
  53        -0.00000000
  54         0.00000000
  55        -0.00000000
  56         0.00000000
  57        -0.00000000
  58        -0.00000000
  59        -0.00000000
  60         0.00000000
  61        -0.00000000
Sym=    19a  
Ene=     3.6948
Spin= Alpha
Occup=    0.00000
   1         0.00000000
   2        -0.00000000
   3         0.00000000
   4        -0.00000000
   5         0.00000000
   6        -0.00000000
   7         0.00000000
   8        -0.00000000
   9         0.00000000
  10        -0.00000000
  11         0.00000000
  12         0.00000000
  13        -0.00000000
  14         0.00000000
  15         0.00000000
  16         0.00000000
  17         0.00000000
  18        -0.00000000
  19        -0.00000000
  20        -0.00000000
  21         0.00000000
  22        -0.00000000
  23         0.00000000
  24        -0.00000000
  25         0.00000000
  26         0.00000000
  27        -0.00000000
  28        -0.00000000
  29        -0.00000000
  30         0.00000000
  31        -0.00000000
  32         0.00000000
  33         0.00000000
  34         0.00000000
  35        -0.00000000
  36        -0.00000000
  37        -0.00000000
  38        -0.00000000
  39         0.00000000
  40        -0.00000000
  41         0.00000000
  42         0.00198531
  43         0.01445122
  44         0.04662132
  45        -0.00013421
  46        -0.00000000
  47        -0.01113239
  48        -0.08103345
  49        -0.26142346
  50         0.00075254
  51         0.00000000
  52         0.05961063
  53         0.43390988
  54         1.39984439
  55        -0.00402962
  56        -0.00000000
  57        -0.02837008
  58        -0.20650776
  59        -0.66621838
  60         0.00191779
  61         0.00000000
Sym=    20a  
Ene=     3.6948
Spin= Alpha
Occup=    0.00000
   1        -0.00000000
   2         0.00000000
   3        -0.00000000
   4         0.00000000
   5        -0.00000000
   6         0.00000000
   7        -0.00000000
   8         0.00000000
   9        -0.00000000
  10         0.00000000
  11        -0.00000000
  12         0.00000000
  13        -0.00000000
  14         0.00000000
  15         0.00000000
  16        -0.00000000
  17         0.00000000
  18        -0.00000000
  19        -0.00000000
  20        -0.00000000
  21         0.00000000
  22        -0.00000000
  23         0.00000000
  24         0.00000000
  25        -0.00000000
  26         0.00000000
  27        -0.00000000
  28         0.00000000
  29        -0.00000000
  30         0.00000000
  31        -0.00000000
  32         0.00000000
  33         0.00000000
  34        -0.00000000
  35        -0.00000000
  36        -0.00000000
  37        -0.00000000
  38         0.00000000
  39         0.00000000
  40        -0.00000000
  41        -0.00000000
  42         0.00278946
  43         0.00003752
  44         0.00000998
  45         0.04877051
  46         0.00000000
  47        -0.01564154
  48        -0.00021039
  49        -0.00005594
  50        -0.27347474
  51        -0.00000000
  52         0.08375574
  53         0.00112659
  54         0.00029954
  55         1.46437543
  56         0.00000000
  57        -0.03986130
  58        -0.00053617
  59        -0.00014256
  60        -0.69693020
  61        -0.00000000
Sym=    21a  
Ene=     3.6948
Spin= Alpha
Occup=    0.00000
   1        -0.00000000
   2         0.00000000
   3        -0.00000000
   4         0.00000000
   5        -0.00000000
   6         0.00000000
   7        -0.00000000
   8         0.00000000
   9        -0.00000000
  10         0.00000000
  11         0.00000000
  12        -0.00000000
  13         0.00000000
  14        -0.00000000
  15        -0.00000000
  16        -0.00000000
  17        -0.00000000
  18        -0.00000000
  19         0.00000000
  20         0.00000000
  21        -0.00000000
  22        -0.00000000
  23         0.00000000
  24         0.00000000
  25         0.00000000
  26        -0.00000000
  27        -0.00000000
  28        -0.00000000
  29         0.00000000
  30         0.00000000
  31         0.00000000
  32        -0.00000000
  33        -0.00000000
  34        -0.00000000
  35         0.00000000
  36         0.00000000
  37         0.00000000
  38        -0.00000000
  39         0.00000000
  40        -0.00000000
  41         0.00000000
  42         0.04741899
  43        -0.01132578
  44         0.00148359
  45        -0.00270374
  46        -0.00000000
  47        -0.26589626
  48         0.06350795
  49        -0.00831906
  50         0.01516092
  51         0.00000000
  52         1.42379491
  53        -0.34006607
  54         0.04454608
  55        -0.08118220
  56        -0.00000000
  57        -0.67761699
  58         0.16184532
  59        -0.02120051
  60         0.03863649
  61         0.00000000
Sym=    22a  
Ene=     3.6948
Spin= Alpha
Occup=    0.00000
   1        -0.00000000
   2         0.00000000
   3        -0.00000000
   4         0.00000000
   5        -0.00000000
   6         0.00000000
   7        -0.00000000
   8         0.00000000
   9        -0.00000000
  10         0.00000000
  11        -0.00000000
  12         0.00000000
  13        -0.00000000
  14         0.00000000
  15         0.00000000
  16        -0.00000000
  17         0.00000000
  18        -0.00000000
  19        -0.00000000
  20        -0.00000000
  21         0.00000000
  22        -0.00000000
  23         0.00000000
  24         0.00000000
  25        -0.00000000
  26         0.00000000
  27        -0.00000000
  28        -0.00000000
  29        -0.00000000
  30         0.00000000
  31        -0.00000000
  32         0.00000000
  33         0.00000000
  34        -0.00000000
  35        -0.00000000
  36        -0.00000000
  37        -0.00000000
  38         0.00000000
  39         0.00000000
  40        -0.00000000
  41        -0.00000000
  42         0.00000000
  43         0.00000000
  44        -0.00000000
  45        -0.00000000
  46         0.04885023
  47        -0.00000000
  48        -0.00000000
  49         0.00000000
  50         0.00000000
  51        -0.27392178
  52         0.00000000
  53         0.00000000
  54        -0.00000000
  55        -0.00000000
  56         1.46676916
  57        -0.00000000
  58        -0.00000000
  59         0.00000000
  60         0.00000000
  61        -0.69806943
Sym=    23a  
Ene=     3.6948
Spin= Alpha
Occup=    0.00000
   1         0.00000000
   2        -0.00000000
   3         0.00000000
   4        -0.00000000
   5         0.00000000
   6        -0.00000000
   7         0.00000000
   8        -0.00000000
   9         0.00000000
  10        -0.00000000
  11         0.00000000
  12        -0.00000000
  13         0.00000000
  14        -0.00000000
  15        -0.00000000
  16         0.00000000
  17        -0.00000000
  18         0.00000000
  19         0.00000000
  20         0.00000000
  21        -0.00000000
  22         0.00000000
  23        -0.00000000
  24        -0.00000000
  25         0.00000000
  26        -0.00000000
  27         0.00000000
  28        -0.00000000
  29         0.00000000
  30        -0.00000000
  31         0.00000000
  32        -0.00000000
  33        -0.00000000
  34        -0.00000000
  35         0.00000000
  36         0.00000000
  37         0.00000000
  38        -0.00000000
  39        -0.00000000
  40         0.00000000
  41         0.00000000
  42         0.01122774
  43         0.04526845
  44        -0.01451192
  45        -0.00067403
  46        -0.00000000
  47        -0.06295818
  48        -0.25383738
  49         0.08137387
  50         0.00377957
  51         0.00000000
  52         0.33712221
  53         1.35922323
  54        -0.43573272
  55        -0.02023845
  56        -0.00000000
  57        -0.16044427
  58        -0.64688583
  59         0.20737530
  60         0.00963195
  61         0.00000000
Sym=    24a  
Ene=     3.6998
Spin= Alpha
Occup=    0.00000
   1         0.00000000
   2         0.00000000
   3         0.00000000
   4         0.00000000
   5         0.00000000
   6         0.00000000
   7         0.00000000
   8         0.00000000
   9         0.00000000
  10         0.00000000
  11        -0.00000000
  12        -0.00000000
  13        -0.00000000
  14         0.00000000
  15        -0.00000000
  16         0.00000000
  17        -0.00131252
  18         0.00000000
  19         0.00000000
  20         0.01186021
  21        -0.00000000
  22         0.00000000
  23        -0.05879218
  24        -0.00000000
  25         0.00000000
  26         0.22666064
  27         0.00000000
  28         0.00000000
  29        -0.80632728
  30        -0.00000000
  31         0.00000000
  32         2.90007643
  33        -0.00000000
  34         0.00000000
  35        -2.83517965
  36         0.00000000
  37         0.00000000
  38         1.40373043
  39        -0.00000000
  40         0.00000000
  41        -0.36341970
  42        -0.00000000
  43         0.00000000
  44        -0.00000000
  45        -0.00000000
  46         0.00000000
  47        -0.00000000
  48        -0.00000000
  49        -0.00000000
  50         0.00000000
  51        -0.00000000
  52        -0.00000000
  53         0.00000000
  54         0.00000000
  55        -0.00000000
  56         0.00000000
  57        -0.00000000
  58        -0.00000000
  59        -0.00000000
  60         0.00000000
  61        -0.00000000
Sym=    25a  
Ene=     3.6998
Spin= Alpha
Occup=    0.00000
   1         0.00000000
   2         0.00000000
   3         0.00000000
   4         0.00000000
   5         0.00000000
   6         0.00000000
   7         0.00000000
   8         0.00000000
   9         0.00000000
  10         0.00000000
  11         0.00000000
  12         0.00000000
  13         0.00000000
  14        -0.00000000
  15         0.00000000
  16        -0.00131252
  17         0.00000000
  18        -0.00000000
  19         0.01186021
  20        -0.00000000
  21         0.00000000
  22        -0.05879218
  23         0.00000000
  24         0.00000000
  25         0.22666064
  26         0.00000000
  27        -0.00000000
  28        -0.80632728
  29        -0.00000000
  30         0.00000000
  31         2.90007643
  32         0.00000000
  33         0.00000000
  34        -2.83517965
  35        -0.00000000
  36        -0.00000000
  37         1.40373043
  38         0.00000000
  39         0.00000000
  40        -0.36341970
  41        -0.00000000
  42        -0.00000000
  43        -0.00000000
  44         0.00000000
  45         0.00000000
  46        -0.00000000
  47         0.00000000
  48         0.00000000
  49        -0.00000000
  50        -0.00000000
  51         0.00000000
  52        -0.00000000
  53        -0.00000000
  54        -0.00000000
  55         0.00000000
  56        -0.00000000
  57         0.00000000
  58         0.00000000
  59         0.00000000
  60        -0.00000000
  61         0.00000000
Sym=    26a  
Ene=     3.6998
Spin= Alpha
Occup=    0.00000
   1         0.00000000
   2         0.00000000
   3         0.00000000
   4         0.00000000
   5         0.00000000
   6         0.00000000
   7         0.00000000
   8         0.00000000
   9         0.00000000
  10         0.00000000
  11        -0.00000000
  12        -0.00000000
  13        -0.00000000
  14         0.00000000
  15        -0.00131252
  16        -0.00000000
  17         0.00000000
  18         0.01186021
  19        -0.00000000
  20        -0.00000000
  21        -0.05879218
  22        -0.00000000
  23         0.00000000
  24         0.22666064
  25        -0.00000000
  26        -0.00000000
  27        -0.80632728
  28        -0.00000000
  29        -0.00000000
  30         2.90007643
  31        -0.00000000
  32         0.00000000
  33        -2.83517965
  34        -0.00000000
  35         0.00000000
  36         1.40373043
  37        -0.00000000
  38        -0.00000000
  39        -0.36341970
  40        -0.00000000
  41         0.00000000
  42        -0.00000000
  43         0.00000000
  44         0.00000000
  45         0.00000000
  46         0.00000000
  47         0.00000000
  48        -0.00000000
  49        -0.00000000
  50        -0.00000000
  51        -0.00000000
  52        -0.00000000
  53         0.00000000
  54         0.00000000
  55         0.00000000
  56         0.00000000
  57         0.00000000
  58        -0.00000000
  59        -0.00000000
  60        -0.00000000
  61        -0.00000000
Sym=    27a  
Ene=     4.0201
Spin= Alpha
Occup=    0.00000
   1        -0.00000312
   2         0.00003818
   3        -0.00027234
   4         0.00147583
   5        -0.00648091
   6         0.02694714
   7        -0.08833756
   8         0.34668362
   9        -0.82756270
  10         3.10547917
  11        -6.31582643
  12         5.86347946
  13        -2.70575667
  14         0.67209421
  15         0.00000000
  16        -0.00000000
  17         0.00000000
  18        -0.00000000
  19        -0.00000000
  20        -0.00000000
  21         0.00000000
  22        -0.00000000
  23         0.00000000
  24         0.00000000
  25        -0.00000000
  26         0.00000000
  27        -0.00000000
  28         0.00000000
  29        -0.00000000
  30         0.00000000
  31        -0.00000000
  32         0.00000000
  33         0.00000000
  34        -0.00000000
  35        -0.00000000
  36        -0.00000000
  37        -0.00000000
  38         0.00000000
  39         0.00000000
  40        -0.00000000
  41        -0.00000000
  42         0.00000000
  43         0.00000000
  44         0.00000000
  45        -0.00000000
  46         0.00000000
  47        -0.00000000
  48        -0.00000000
  49        -0.00000000
  50         0.00000000
  51        -0.00000000
  52         0.00000000
  53         0.00000000
  54         0.00000000
  55        -0.00000000
  56        -0.00000000
  57        -0.00000000
  58        -0.00000000
  59        -0.00000000
  60         0.00000000
  61         0.00000000
Sym=    28a  
Ene=     4.7411
Spin= Alpha
Occup=    0.00000
   1         0.00000000
   2         0.00000000
   3         0.00000000
   4         0.00000000
   5         0.00000000
   6         0.00000000
   7         0.00000000
   8         0.00000000
   9         0.00000000
  10        -0.00000000
  11         0.00000000
  12         0.00000000
  13         0.00000000
  14        -0.00000000
  15         0.00000000
  16        -0.00000000
  17         0.00365297
  18        -0.00000000
  19        -0.00000000
  20        -0.03355060
  21         0.00000000
  22        -0.00000000
  23         0.17223192
  24         0.00000000
  25        -0.00000000
  26        -0.71464487
  27        -0.00000000
  28        -0.00000000
  29         2.86764427
  30         0.00000000
  31        -0.00000000
  32        -3.05078464
  33         0.00000000
  34        -0.00000000
  35         1.90124666
  36        -0.00000000
  37        -0.00000000
  38        -0.82579696
  39         0.00000000
  40        -0.00000000
  41         0.21096474
  42        -0.00000000
  43        -0.00000000
  44         0.00000000
  45         0.00000000
  46        -0.00000000
  47         0.00000000
  48         0.00000000
  49        -0.00000000
  50        -0.00000000
  51         0.00000000
  52        -0.00000000
  53        -0.00000000
  54        -0.00000000
  55         0.00000000
  56        -0.00000000
  57         0.00000000
  58         0.00000000
  59         0.00000000
  60        -0.00000000
  61         0.00000000
Sym=    29a  
Ene=     4.7411
Spin= Alpha
Occup=    0.00000
   1         0.00000000
   2         0.00000000
   3         0.00000000
   4         0.00000000
   5         0.00000000
   6         0.00000000
   7         0.00000000
   8         0.00000000
   9         0.00000000
  10         0.00000000
  11         0.00000000
  12         0.00000000
  13         0.00000000
  14        -0.00000000
  15         0.00000000
  16         0.00365297
  17         0.00000000
  18        -0.00000000
  19        -0.03355060
  20        -0.00000000
  21         0.00000000
  22         0.17223192
  23         0.00000000
  24         0.00000000
  25        -0.71464487
  26         0.00000000
  27        -0.00000000
  28         2.86764427
  29        -0.00000000
  30         0.00000000
  31        -3.05078464
  32         0.00000000
  33         0.00000000
  34         1.90124666
  35        -0.00000000
  36        -0.00000000
  37        -0.82579696
  38         0.00000000
  39         0.00000000
  40         0.21096474
  41        -0.00000000
  42        -0.00000000
  43        -0.00000000
  44         0.00000000
  45         0.00000000
  46        -0.00000000
  47         0.00000000
  48         0.00000000
  49        -0.00000000
  50        -0.00000000
  51         0.00000000
  52        -0.00000000
  53        -0.00000000
  54        -0.00000000
  55         0.00000000
  56        -0.00000000
  57         0.00000000
  58         0.00000000
  59         0.00000000
  60        -0.00000000
  61         0.00000000
Sym=    30a  
Ene=     4.7411
Spin= Alpha
Occup=    0.00000
   1         0.00000000
   2         0.00000000
   3         0.00000000
   4         0.00000000
   5         0.00000000
   6         0.00000000
   7         0.00000000
   8         0.00000000
   9         0.00000000
  10         0.00000000
  11        -0.00000000
  12        -0.00000000
  13        -0.00000000
  14         0.00000000
  15         0.00365297
  16        -0.00000000
  17         0.00000000
  18        -0.03355060
  19        -0.00000000
  20        -0.00000000
  21         0.17223192
  22        -0.00000000
  23         0.00000000
  24        -0.71464487
  25        -0.00000000
  26        -0.00000000
  27         2.86764427
  28        -0.00000000
  29        -0.00000000
  30        -3.05078464
  31        -0.00000000
  32         0.00000000
  33         1.90124666
  34        -0.00000000
  35         0.00000000
  36        -0.82579696
  37        -0.00000000
  38        -0.00000000
  39         0.21096474
  40        -0.00000000
  41         0.00000000
  42        -0.00000000
  43         0.00000000
  44         0.00000000
  45         0.00000000
  46         0.00000000
  47         0.00000000
  48        -0.00000000
  49        -0.00000000
  50        -0.00000000
  51        -0.00000000
  52        -0.00000000
  53         0.00000000
  54         0.00000000
  55         0.00000000
  56         0.00000000
  57         0.00000000
  58        -0.00000000
  59        -0.00000000
  60        -0.00000000
  61        -0.00000000
Sym=    31a  
Ene=     5.1102
Spin= Alpha
Occup=    0.00000
   1         0.00000000
   2         0.00000000
   3        -0.00000000
   4         0.00000000
   5        -0.00000000
   6         0.00000000
   7        -0.00000000
   8         0.00000000
   9        -0.00000000
  10        -0.00000000
  11         0.00000000
  12        -0.00000000
  13         0.00000000
  14        -0.00000000
  15         0.00000000
  16        -0.00000000
  17         0.00000000
  18        -0.00000000
  19         0.00000000
  20        -0.00000000
  21         0.00000000
  22        -0.00000000
  23         0.00000000
  24        -0.00000000
  25         0.00000000
  26        -0.00000000
  27        -0.00000000
  28        -0.00000000
  29         0.00000000
  30         0.00000000
  31         0.00000000
  32        -0.00000000
  33         0.00000000
  34        -0.00000000
  35         0.00000000
  36        -0.00000000
  37        -0.00000000
  38        -0.00000000
  39         0.00000000
  40         0.00000000
  41         0.00000000
  42        -0.20419102
  43         0.04062777
  44        -0.03295500
  45        -0.02140289
  46        -0.00000000
  47         1.46940291
  48        -0.29236623
  49         0.23715132
  50         0.15401985
  51         0.00000000
  52        -0.96823934
  53         0.19265001
  54        -0.15626704
  55        -0.10148889
  56        -0.00000000
  57         0.32796142
  58        -0.06525429
  59         0.05293067
  60         0.03437625
  61         0.00000000
Sym=    32a  
Ene=     5.1102
Spin= Alpha
Occup=    0.00000
   1        -0.00000000
   2         0.00000000
   3        -0.00000000
   4         0.00000000
   5        -0.00000000
   6         0.00000000
   7        -0.00000000
   8         0.00000000
   9        -0.00000000
  10         0.00000000
  11        -0.00000000
  12         0.00000000
  13        -0.00000000
  14         0.00000000
  15        -0.00000000
  16         0.00000000
  17        -0.00000000
  18         0.00000000
  19         0.00000000
  20         0.00000000
  21        -0.00000000
  22         0.00000000
  23        -0.00000000
  24        -0.00000000
  25         0.00000000
  26        -0.00000000
  27         0.00000000
  28         0.00000000
  29         0.00000000
  30        -0.00000000
  31         0.00000000
  32        -0.00000000
  33        -0.00000000
  34         0.00000000
  35         0.00000000
  36         0.00000000
  37         0.00000000
  38        -0.00000000
  39        -0.00000000
  40         0.00000000
  41         0.00000000
  42        -0.00000000
  43         0.00000000
  44        -0.00000000
  45         0.00000000
  46        -0.21186955
  47         0.00000000
  48        -0.00000000
  49         0.00000000
  50        -0.00000000
  51         1.52465924
  52        -0.00000000
  53         0.00000000
  54        -0.00000000
  55         0.00000000
  56        -1.00464960
  57         0.00000000
  58        -0.00000000
  59         0.00000000
  60        -0.00000000
  61         0.34029428
Sym=    33a  
Ene=     5.1102
Spin= Alpha
Occup=    0.00000
   1         0.00000000
   2        -0.00000000
   3         0.00000000
   4        -0.00000000
   5         0.00000000
   6        -0.00000000
   7         0.00000000
   8        -0.00000000
   9         0.00000000
  10        -0.00000000
  11        -0.00000000
  12         0.00000000
  13        -0.00000000
  14         0.00000000
  15        -0.00000000
  16         0.00000000
  17        -0.00000000
  18         0.00000000
  19         0.00000000
  20         0.00000000
  21        -0.00000000
  22         0.00000000
  23        -0.00000000
  24        -0.00000000
  25         0.00000000
  26        -0.00000000
  27         0.00000000
  28         0.00000000
  29         0.00000000
  30        -0.00000000
  31         0.00000000
  32        -0.00000000
  33        -0.00000000
  34         0.00000000
  35         0.00000000
  36         0.00000000
  37         0.00000000
  38        -0.00000000
  39        -0.00000000
  40         0.00000000
  41         0.00000000
  42        -0.05278585
  43        -0.17083442
  44         0.11357038
  45         0.00444166
  46         0.00000000
  47         0.37985844
  48         1.22936157
  49        -0.81727709
  50        -0.03196314
  51        -0.00000000
  52        -0.25030159
  53        -0.81006797
  54         0.53853155
  55         0.02106160
  56         0.00000000
  57         0.08478200
  58         0.27438571
  59        -0.18241107
  60        -0.00713397
  61        -0.00000000
Sym=    34a  
Ene=     5.1102
Spin= Alpha
Occup=    0.00000
   1        -0.00000000
   2         0.00000000
   3        -0.00000000
   4         0.00000000
   5        -0.00000000
   6         0.00000000
   7        -0.00000000
   8         0.00000000
   9        -0.00000000
  10         0.00000000
  11        -0.00000000
  12         0.00000000
  13        -0.00000000
  14         0.00000000
  15         0.00000000
  16        -0.00000000
  17         0.00000000
  18        -0.00000000
  19        -0.00000000
  20        -0.00000000
  21         0.00000000
  22        -0.00000000
  23         0.00000000
  24         0.00000000
  25        -0.00000000
  26        -0.00000000
  27        -0.00000000
  28        -0.00000000
  29        -0.00000000
  30         0.00000000
  31        -0.00000000
  32         0.00000000
  33         0.00000000
  34        -0.00000000
  35         0.00000000
  36        -0.00000000
  37        -0.00000000
  38        -0.00000000
  39         0.00000000
  40        -0.00000000
  41         0.00000000
  42         0.00484995
  43        -0.11830788
  44        -0.17569384
  45        -0.00032286
  46        -0.00000000
  47        -0.03490126
  48         0.85136917
  49         1.26433098
  50         0.00232335
  51         0.00000000
  52         0.02299762
  53        -0.56099598
  54        -0.83311050
  55        -0.00153093
  56        -0.00000000
  57        -0.00778974
  58         0.19002020
  59         0.28219066
  60         0.00051856
  61         0.00000000
Sym=    35a  
Ene=     5.1102
Spin= Alpha
Occup=    0.00000
   1        -0.00000000
   2         0.00000000
   3        -0.00000000
   4         0.00000000
   5        -0.00000000
   6         0.00000000
   7        -0.00000000
   8         0.00000000
   9        -0.00000000
  10         0.00000000
  11        -0.00000000
  12         0.00000000
  13        -0.00000000
  14        -0.00000000
  15        -0.00000000
  16         0.00000000
  17        -0.00000000
  18         0.00000000
  19         0.00000000
  20         0.00000000
  21        -0.00000000
  22         0.00000000
  23        -0.00000000
  24        -0.00000000
  25         0.00000000
  26        -0.00000000
  27         0.00000000
  28         0.00000000
  29         0.00000000
  30        -0.00000000
  31         0.00000000
  32        -0.00000000
  33        -0.00000000
  34         0.00000000
  35         0.00000000
  36         0.00000000
  37         0.00000000
  38        -0.00000000
  39        -0.00000000
  40         0.00000000
  41         0.00000000
  42         0.01961793
  43        -0.00754557
  44         0.00600980
  45        -0.21073867
  46        -0.00000000
  47        -0.14117485
  48         0.05429956
  49        -0.04324782
  50         1.51652123
  51         0.00000000
  52         0.09302489
  53        -0.03577982
  54         0.02849745
  55        -0.99928719
  56        -0.00000000
  57        -0.03150933
  58         0.01211932
  59        -0.00965264
  60         0.33847793
  61         0.00000000
Sym=    36a  
Ene=     6.3268
Spin= Alpha
Occup=    0.00000
   1        -0.00001030
   2         0.00012576
   3        -0.00090188
   4         0.00483166
   5        -0.02208660
   6         0.08546369
   7        -0.34241135
   8         1.05996909
   9        -4.16486162
  10         7.45157522
  11        -6.29061876
  12         3.36698849
  13        -1.47447063
  14         0.34575017
  15        -0.00000000
  16        -0.00000000
  17        -0.00000000
  18         0.00000000
  19         0.00000000
  20         0.00000000
  21        -0.00000000
  22        -0.00000000
  23        -0.00000000
  24         0.00000000
  25         0.00000000
  26         0.00000000
  27         0.00000000
  28        -0.00000000
  29        -0.00000000
  30        -0.00000000
  31         0.00000000
  32         0.00000000
  33        -0.00000000
  34         0.00000000
  35        -0.00000000
  36         0.00000000
  37        -0.00000000
  38         0.00000000
  39        -0.00000000
  40         0.00000000
  41        -0.00000000
  42        -0.00000000
  43         0.00000000
  44        -0.00000000
  45        -0.00000000
  46         0.00000000
  47         0.00000000
  48        -0.00000000
  49         0.00000000
  50         0.00000000
  51        -0.00000000
  52        -0.00000000
  53         0.00000000
  54        -0.00000000
  55        -0.00000000
  56         0.00000000
  57         0.00000000
  58        -0.00000000
  59         0.00000000
  60        -0.00000000
  61        -0.00000000
Sym=    37a  
Ene=     7.3443
Spin= Alpha
Occup=    0.00000
   1        -0.00000000
   2        -0.00000000
   3        -0.00000000
   4        -0.00000000
   5        -0.00000000
   6        -0.00000000
   7        -0.00000000
   8        -0.00000000
   9        -0.00000000
  10         0.00000000
  11        -0.00000000
  12        -0.00000000
  13        -0.00000000
  14         0.00000000
  15        -0.00000000
  16         0.00000000
  17        -0.01060309
  18         0.00000000
  19         0.00000000
  20         0.10127846
  21        -0.00000000
  22         0.00000000
  23        -0.56339860
  24        -0.00000000
  25         0.00000000
  26         2.67993504
  27         0.00000000
  28         0.00000000
  29        -2.96408760
  30        -0.00000000
  31         0.00000000
  32         2.01107460
  33        -0.00000000
  34         0.00000000
  35        -1.10320054
  36         0.00000000
  37         0.00000000
  38         0.47313604
  39        -0.00000000
  40         0.00000000
  41        -0.12253614
  42         0.00000000
  43         0.00000000
  44        -0.00000000
  45        -0.00000000
  46         0.00000000
  47        -0.00000000
  48        -0.00000000
  49         0.00000000
  50         0.00000000
  51        -0.00000000
  52         0.00000000
  53         0.00000000
  54         0.00000000
  55        -0.00000000
  56         0.00000000
  57        -0.00000000
  58        -0.00000000
  59        -0.00000000
  60         0.00000000
  61        -0.00000000
Sym=    38a  
Ene=     7.3443
Spin= Alpha
Occup=    0.00000
   1         0.00000000
   2         0.00000000
   3         0.00000000
   4         0.00000000
   5         0.00000000
   6         0.00000000
   7         0.00000000
   8         0.00000000
   9         0.00000000
  10         0.00000000
  11         0.00000000
  12         0.00000000
  13         0.00000000
  14        -0.00000000
  15         0.00000000
  16        -0.01060309
  17         0.00000000
  18        -0.00000000
  19         0.10127846
  20        -0.00000000
  21         0.00000000
  22        -0.56339860
  23         0.00000000
  24         0.00000000
  25         2.67993504
  26         0.00000000
  27        -0.00000000
  28        -2.96408760
  29        -0.00000000
  30         0.00000000
  31         2.01107460
  32         0.00000000
  33         0.00000000
  34        -1.10320054
  35        -0.00000000
  36        -0.00000000
  37         0.47313604
  38         0.00000000
  39         0.00000000
  40        -0.12253614
  41        -0.00000000
  42        -0.00000000
  43        -0.00000000
  44         0.00000000
  45         0.00000000
  46        -0.00000000
  47         0.00000000
  48         0.00000000
  49        -0.00000000
  50        -0.00000000
  51         0.00000000
  52        -0.00000000
  53        -0.00000000
  54        -0.00000000
  55         0.00000000
  56        -0.00000000
  57         0.00000000
  58         0.00000000
  59         0.00000000
  60        -0.00000000
  61         0.00000000
Sym=    39a  
Ene=     7.3443
Spin= Alpha
Occup=    0.00000
   1        -0.00000000
   2        -0.00000000
   3        -0.00000000
   4        -0.00000000
   5        -0.00000000
   6        -0.00000000
   7        -0.00000000
   8        -0.00000000
   9        -0.00000000
  10         0.00000000
  11        -0.00000000
  12        -0.00000000
  13        -0.00000000
  14         0.00000000
  15        -0.01060309
  16         0.00000000
  17        -0.00000000
  18         0.10127846
  19         0.00000000
  20         0.00000000
  21        -0.56339860
  22         0.00000000
  23        -0.00000000
  24         2.67993504
  25         0.00000000
  26        -0.00000000
  27        -2.96408760
  28         0.00000000
  29         0.00000000
  30         2.01107460
  31         0.00000000
  32        -0.00000000
  33        -1.10320054
  34         0.00000000
  35         0.00000000
  36         0.47313604
  37         0.00000000
  38        -0.00000000
  39        -0.12253614
  40         0.00000000
  41         0.00000000
  42         0.00000000
  43         0.00000000
  44        -0.00000000
  45        -0.00000000
  46         0.00000000
  47        -0.00000000
  48        -0.00000000
  49         0.00000000
  50         0.00000000
  51        -0.00000000
  52         0.00000000
  53         0.00000000
  54         0.00000000
  55        -0.00000000
  56         0.00000000
  57        -0.00000000
  58        -0.00000000
  59        -0.00000000
  60         0.00000000
  61        -0.00000000
Sym=    40a  
Ene=     9.3895
Spin= Alpha
Occup=    0.00000
   1        -0.00000000
   2         0.00000000
   3        -0.00000000
   4        -0.00000000
   5        -0.00000000
   6         0.00000000
   7        -0.00000000
   8        -0.00000000
   9        -0.00000000
  10         0.00000000
  11        -0.00000000
  12         0.00000000
  13        -0.00000000
  14         0.00000000
  15        -0.00000000
  16         0.00000000
  17        -0.00000000
  18         0.00000000
  19         0.00000000
  20         0.00000000
  21        -0.00000000
  22         0.00000000
  23        -0.00000000
  24         0.00000000
  25         0.00000000
  26         0.00000000
  27        -0.00000000
  28         0.00000000
  29        -0.00000000
  30        -0.00000000
  31        -0.00000000
  32         0.00000000
  33        -0.00000000
  34         0.00000000
  35        -0.00000000
  36         0.00000000
  37         0.00000000
  38         0.00000000
  39        -0.00000000
  40         0.00000000
  41        -0.00000000
  42         0.00007456
  43         0.11269449
  44         1.36994840
  45        -0.00009435
  46        -0.00000000
  47        -0.00005586
  48        -0.08443450
  49        -1.02641136
  50         0.00007069
  51         0.00000000
  52         0.00002599
  53         0.03928248
  54         0.47752979
  55        -0.00003289
  56        -0.00000000
  57        -0.00000855
  58        -0.01292275
  59        -0.15709286
  60         0.00001082
  61         0.00000000
Sym=    41a  
Ene=     9.3895
Spin= Alpha
Occup=    0.00000
   1        -0.00000000
   2         0.00000000
   3        -0.00000000
   4         0.00000000
   5        -0.00000000
   6         0.00000000
   7        -0.00000000
   8         0.00000000
   9        -0.00000000
  10         0.00000000
  11        -0.00000000
  12         0.00000000
  13        -0.00000000
  14         0.00000000
  15         0.00000000
  16        -0.00000000
  17         0.00000000
  18        -0.00000000
  19        -0.00000000
  20        -0.00000000
  21         0.00000000
  22        -0.00000000
  23         0.00000000
  24         0.00000000
  25        -0.00000000
  26         0.00000000
  27        -0.00000000
  28        -0.00000000
  29        -0.00000000
  30         0.00000000
  31        -0.00000000
  32         0.00000000
  33         0.00000000
  34        -0.00000000
  35        -0.00000000
  36        -0.00000000
  37        -0.00000000
  38         0.00000000
  39         0.00000000
  40        -0.00000000
  41        -0.00000000
  42         0.71766636
  43        -0.00009350
  44         0.00004938
  45         1.17235389
  46        -0.00000000
  47        -0.53769975
  48         0.00007006
  49        -0.00003699
  50        -0.87836692
  51         0.00000000
  52         0.25016057
  53        -0.00003259
  54         0.00001721
  55         0.40865328
  56        -0.00000000
  57        -0.08229526
  58         0.00001072
  59        -0.00000566
  60        -0.13443457
  61         0.00000000
Sym=    42a  
Ene=     9.3895
Spin= Alpha
Occup=    0.00000
   1         0.00000000
   2         0.00000000
   3         0.00000000
   4         0.00000000
   5        -0.00000000
   6         0.00000000
   7        -0.00000000
   8         0.00000000
   9        -0.00000000
  10         0.00000000
  11         0.00000000
  12        -0.00000000
  13         0.00000000
  14        -0.00000000
  15         0.00000000
  16        -0.00000000
  17         0.00000000
  18        -0.00000000
  19        -0.00000000
  20        -0.00000000
  21         0.00000000
  22        -0.00000000
  23         0.00000000
  24         0.00000000
  25        -0.00000000
  26        -0.00000000
  27        -0.00000000
  28        -0.00000000
  29        -0.00000000
  30         0.00000000
  31        -0.00000000
  32         0.00000000
  33         0.00000000
  34        -0.00000000
  35         0.00000000
  36        -0.00000000
  37        -0.00000000
  38        -0.00000000
  39         0.00000000
  40        -0.00000000
  41         0.00000000
  42         1.17235366
  43        -0.00081984
  44        -0.00004579
  45        -0.71766628
  46         0.00000000
  47        -0.87836675
  48         0.00061425
  49         0.00003431
  50         0.53769969
  51        -0.00000000
  52         0.40865320
  53        -0.00028577
  54        -0.00001596
  55        -0.25016054
  56         0.00000000
  57        -0.13443455
  58         0.00009401
  59         0.00000525
  60         0.08229525
  61        -0.00000000
Sym=    43a  
Ene=     9.3895
Spin= Alpha
Occup=    0.00000
   1         0.00000000
   2         0.00000000
   3        -0.00000000
   4         0.00000000
   5        -0.00000000
   6         0.00000000
   7        -0.00000000
   8         0.00000000
   9        -0.00000000
  10         0.00000000
  11        -0.00000000
  12         0.00000000
  13        -0.00000000
  14         0.00000000
  15         0.00000000
  16        -0.00000000
  17         0.00000000
  18        -0.00000000
  19        -0.00000000
  20        -0.00000000
  21         0.00000000
  22        -0.00000000
  23         0.00000000
  24         0.00000000
  25        -0.00000000
  26         0.00000000
  27        -0.00000000
  28        -0.00000000
  29        -0.00000000
  30         0.00000000
  31        -0.00000000
  32         0.00000000
  33         0.00000000
  34        -0.00000000
  35        -0.00000000
  36        -0.00000000
  37        -0.00000000
  38         0.00000000
  39         0.00000000
  40        -0.00000000
  41        -0.00000000
  42         0.00000000
  43        -0.00000000
  44         0.00000000
  45         0.00000000
  46         1.37457581
  47        -0.00000000
  48         0.00000000
  49        -0.00000000
  50        -0.00000000
  51        -1.02987838
  52         0.00000000
  53        -0.00000000
  54         0.00000000
  55         0.00000000
  56         0.47914279
  57        -0.00000000
  58         0.00000000
  59        -0.00000000
  60        -0.00000000
  61        -0.15762349
Sym=    44a  
Ene=     9.3895
Spin= Alpha
Occup=    0.00000
   1        -0.00000000
   2        -0.00000000
   3         0.00000000
   4        -0.00000000
   5        -0.00000000
   6         0.00000000
   7        -0.00000000
   8         0.00000000
   9        -0.00000000
  10         0.00000000
  11        -0.00000000
  12         0.00000000
  13        -0.00000000
  14         0.00000000
  15         0.00000000
  16        -0.00000000
  17         0.00000000
  18        -0.00000000
  19        -0.00000000
  20        -0.00000000
  21         0.00000000
  22        -0.00000000
  23         0.00000000
  24         0.00000000
  25        -0.00000000
  26         0.00000000
  27        -0.00000000
  28        -0.00000000
  29        -0.00000000
  30         0.00000000
  31        -0.00000000
  32         0.00000000
  33         0.00000000
  34        -0.00000000
  35        -0.00000000
  36        -0.00000000
  37        -0.00000000
  38         0.00000000
  39         0.00000000
  40        -0.00000000
  41        -0.00000000
  42         0.00074444
  43         1.36994815
  44        -0.11269453
  45        -0.00034170
  46        -0.00000000
  47        -0.00055776
  48        -1.02641118
  49         0.08443453
  50         0.00025602
  51         0.00000000
  52         0.00025949
  53         0.47752970
  54        -0.03928250
  55        -0.00011911
  56        -0.00000000
  57        -0.00008537
  58        -0.15709283
  59         0.01292275
  60         0.00003918
  61         0.00000000
Sym=    45a  
Ene=    12.9070
Spin= Alpha
Occup=    0.00000
   1        -0.00003185
   2         0.00038938
   3        -0.00278785
   4         0.01514927
   5        -0.06846161
   6         0.28953809
   7        -1.09463679
   8         4.64674521
   9        -7.42946434
  10         6.06770332
  11        -3.65828263
  12         1.90062954
  13        -0.75203894
  14         0.18537599
  15         0.00000000
  16        -0.00000000
  17         0.00000000
  18        -0.00000000
  19        -0.00000000
  20        -0.00000000
  21         0.00000000
  22        -0.00000000
  23         0.00000000
  24         0.00000000
  25        -0.00000000
  26        -0.00000000
  27        -0.00000000
  28        -0.00000000
  29        -0.00000000
  30         0.00000000
  31        -0.00000000
  32        -0.00000000
  33         0.00000000
  34         0.00000000
  35         0.00000000
  36        -0.00000000
  37        -0.00000000
  38        -0.00000000
  39         0.00000000
  40         0.00000000
  41         0.00000000
  42        -0.00000000
  43         0.00000000
  44         0.00000000
  45         0.00000000
  46        -0.00000000
  47        -0.00000000
  48        -0.00000000
  49        -0.00000000
  50        -0.00000000
  51         0.00000000
  52         0.00000000
  53         0.00000000
  54         0.00000000
  55         0.00000000
  56        -0.00000000
  57        -0.00000000
  58        -0.00000000
  59        -0.00000000
  60         0.00000000
  61         0.00000000
Sym=    46a  
Ene=    14.1670
Spin= Alpha
Occup=    0.00000
   1        -0.00000000
   2        -0.00000000
   3        -0.00000000
   4        -0.00000000
   5        -0.00000000
   6        -0.00000000
   7        -0.00000000
   8        -0.00000000
   9        -0.00000000
  10        -0.00000000
  11        -0.00000000
  12        -0.00000000
  13        -0.00000000
  14         0.00000000
  15        -0.00000000
  16         0.00000000
  17         0.03357444
  18         0.00000000
  19        -0.00000000
  20        -0.35409953
  21        -0.00000000
  22         0.00000000
  23         2.34081123
  24        -0.00000000
  25        -0.00000000
  26        -2.65216097
  27         0.00000000
  28         0.00000000
  29         1.88060307
  30        -0.00000000
  31        -0.00000000
  32        -1.13288768
  33        -0.00000000
  34         0.00000000
  35         0.61595319
  36         0.00000000
  37        -0.00000000
  38        -0.26753668
  39        -0.00000000
  40         0.00000000
  41         0.07014175
  42         0.00000000
  43         0.00000000
  44        -0.00000000
  45        -0.00000000
  46         0.00000000
  47        -0.00000000
  48        -0.00000000
  49         0.00000000
  50         0.00000000
  51        -0.00000000
  52         0.00000000
  53         0.00000000
  54         0.00000000
  55        -0.00000000
  56         0.00000000
  57        -0.00000000
  58        -0.00000000
  59        -0.00000000
  60         0.00000000
  61        -0.00000000
Sym=    47a  
Ene=    14.1670
Spin= Alpha
Occup=    0.00000
   1         0.00000000
   2         0.00000000
   3         0.00000000
   4         0.00000000
   5         0.00000000
   6         0.00000000
   7         0.00000000
   8         0.00000000
   9         0.00000000
  10         0.00000000
  11         0.00000000
  12         0.00000000
  13         0.00000000
  14        -0.00000000
  15         0.00000000
  16         0.03357444
  17         0.00000000
  18        -0.00000000
  19        -0.35409953
  20        -0.00000000
  21         0.00000000
  22         2.34081123
  23         0.00000000
  24         0.00000000
  25        -2.65216097
  26         0.00000000
  27        -0.00000000
  28         1.88060307
  29        -0.00000000
  30         0.00000000
  31        -1.13288768
  32         0.00000000
  33         0.00000000
  34         0.61595319
  35        -0.00000000
  36        -0.00000000
  37        -0.26753668
  38         0.00000000
  39         0.00000000
  40         0.07014175
  41        -0.00000000
  42        -0.00000000
  43        -0.00000000
  44         0.00000000
  45         0.00000000
  46        -0.00000000
  47         0.00000000
  48         0.00000000
  49        -0.00000000
  50        -0.00000000
  51         0.00000000
  52        -0.00000000
  53        -0.00000000
  54        -0.00000000
  55         0.00000000
  56        -0.00000000
  57         0.00000000
  58         0.00000000
  59         0.00000000
  60        -0.00000000
  61         0.00000000
Sym=    48a  
Ene=    14.1670
Spin= Alpha
Occup=    0.00000
   1         0.00000000
   2         0.00000000
   3         0.00000000
   4         0.00000000
   5         0.00000000
   6         0.00000000
   7         0.00000000
   8         0.00000000
   9         0.00000000
  10         0.00000000
  11        -0.00000000
  12        -0.00000000
  13        -0.00000000
  14         0.00000000
  15         0.03357444
  16        -0.00000000
  17         0.00000000
  18        -0.35409953
  19        -0.00000000
  20        -0.00000000
  21         2.34081123
  22        -0.00000000
  23         0.00000000
  24        -2.65216097
  25        -0.00000000
  26        -0.00000000
  27         1.88060307
  28        -0.00000000
  29         0.00000000
  30        -1.13288768
  31        -0.00000000
  32        -0.00000000
  33         0.61595319
  34        -0.00000000
  35         0.00000000
  36        -0.26753668
  37        -0.00000000
  38        -0.00000000
  39         0.07014175
  40        -0.00000000
  41         0.00000000
  42        -0.00000000
  43         0.00000000
  44         0.00000000
  45         0.00000000
  46         0.00000000
  47        -0.00000000
  48        -0.00000000
  49        -0.00000000
  50        -0.00000000
  51        -0.00000000
  52        -0.00000000
  53         0.00000000
  54         0.00000000
  55         0.00000000
  56         0.00000000
  57         0.00000000
  58        -0.00000000
  59        -0.00000000
  60        -0.00000000
  61        -0.00000000
Sym=    49a  
Ene=    30.4060
Spin= Alpha
Occup=    0.00000
   1         0.00009357
   2        -0.00114442
   3         0.00824495
   4        -0.04510937
   5         0.21349851
   6        -0.93452881
   7         4.27813709
   8        -6.47818840
   9         5.35104471
  10        -3.53837442
  11         2.02305066
  12        -0.98620682
  13         0.43239643
  14        -0.10354371
  15        -0.00000000
  16         0.00000000
  17        -0.00000000
  18         0.00000000
  19         0.00000000
  20         0.00000000
  21        -0.00000000
  22         0.00000000
  23        -0.00000000
  24        -0.00000000
  25         0.00000000
  26         0.00000000
  27         0.00000000
  28         0.00000000
  29         0.00000000
  30        -0.00000000
  31         0.00000000
  32        -0.00000000
  33        -0.00000000
  34         0.00000000
  35         0.00000000
  36         0.00000000
  37         0.00000000
  38         0.00000000
  39        -0.00000000
  40         0.00000000
  41        -0.00000000
  42         0.00000000
  43        -0.00000000
  44        -0.00000000
  45        -0.00000000
  46        -0.00000000
  47         0.00000000
  48         0.00000000
  49         0.00000000
  50         0.00000000
  51         0.00000000
  52        -0.00000000
  53        -0.00000000
  54        -0.00000000
  55        -0.00000000
  56        -0.00000000
  57         0.00000000
  58         0.00000000
  59         0.00000000
  60         0.00000000
  61         0.00000000
Sym=    50a  
Ene=    34.0240
Spin= Alpha
Occup=    0.00000
   1         0.00000000
   2         0.00000000
   3         0.00000000
   4         0.00000000
   5         0.00000000
   6         0.00000000
   7         0.00000000
   8         0.00000000
   9         0.00000000
  10         0.00000000
  11         0.00000000
  12         0.00000000
  13         0.00000000
  14        -0.00000000
  15         0.00000000
  16        -0.00000000
  17        -0.13266498
  18        -0.00000000
  19        -0.00000000
  20         1.84676789
  21         0.00000000
  22        -0.00000000
  23        -2.08590579
  24         0.00000000
  25        -0.00000000
  26         1.54451447
  27        -0.00000000
  28        -0.00000000
  29        -0.99148580
  30         0.00000000
  31        -0.00000000
  32         0.59665165
  33         0.00000000
  34        -0.00000000
  35        -0.32928619
  36        -0.00000000
  37        -0.00000000
  38         0.14465487
  39         0.00000000
  40        -0.00000000
  41        -0.03819989
  42        -0.00000000
  43        -0.00000000
  44         0.00000000
  45         0.00000000
  46        -0.00000000
  47         0.00000000
  48         0.00000000
  49        -0.00000000
  50        -0.00000000
  51         0.00000000
  52        -0.00000000
  53        -0.00000000
  54        -0.00000000
  55         0.00000000
  56        -0.00000000
  57         0.00000000
  58         0.00000000
  59         0.00000000
  60        -0.00000000
  61         0.00000000
Sym=    51a  
Ene=    34.0240
Spin= Alpha
Occup=    0.00000
   1         0.00000000
   2         0.00000000
   3         0.00000000
   4         0.00000000
   5         0.00000000
   6         0.00000000
   7         0.00000000
   8         0.00000000
   9         0.00000000
  10         0.00000000
  11         0.00000000
  12         0.00000000
  13         0.00000000
  14        -0.00000000
  15         0.00000000
  16        -0.13266498
  17         0.00000000
  18        -0.00000000
  19         1.84676789
  20        -0.00000000
  21         0.00000000
  22        -2.08590579
  23         0.00000000
  24         0.00000000
  25         1.54451447
  26         0.00000000
  27        -0.00000000
  28        -0.99148580
  29        -0.00000000
  30         0.00000000
  31         0.59665165
  32         0.00000000
  33         0.00000000
  34        -0.32928619
  35        -0.00000000
  36        -0.00000000
  37         0.14465487
  38         0.00000000
  39         0.00000000
  40        -0.03819989
  41        -0.00000000
  42        -0.00000000
  43        -0.00000000
  44         0.00000000
  45         0.00000000
  46        -0.00000000
  47         0.00000000
  48         0.00000000
  49        -0.00000000
  50        -0.00000000
  51         0.00000000
  52        -0.00000000
  53        -0.00000000
  54        -0.00000000
  55         0.00000000
  56        -0.00000000
  57         0.00000000
  58         0.00000000
  59         0.00000000
  60        -0.00000000
  61         0.00000000
Sym=    52a  
Ene=    34.0240
Spin= Alpha
Occup=    0.00000
   1         0.00000000
   2         0.00000000
   3         0.00000000
   4         0.00000000
   5         0.00000000
   6         0.00000000
   7         0.00000000
   8         0.00000000
   9         0.00000000
  10         0.00000000
  11         0.00000000
  12         0.00000000
  13         0.00000000
  14        -0.00000000
  15        -0.13266498
  16        -0.00000000
  17         0.00000000
  18         1.84676789
  19        -0.00000000
  20        -0.00000000
  21        -2.08590579
  22        -0.00000000
  23         0.00000000
  24         1.54451447
  25        -0.00000000
  26        -0.00000000
  27        -0.99148580
  28        -0.00000000
  29        -0.00000000
  30         0.59665165
  31        -0.00000000
  32         0.00000000
  33        -0.32928619
  34        -0.00000000
  35        -0.00000000
  36         0.14465487
  37        -0.00000000
  38        -0.00000000
  39        -0.03819989
  40        -0.00000000
  41         0.00000000
  42        -0.00000000
  43         0.00000000
  44         0.00000000
  45         0.00000000
  46        -0.00000000
  47         0.00000000
  48        -0.00000000
  49        -0.00000000
  50        -0.00000000
  51        -0.00000000
  52        -0.00000000
  53         0.00000000
  54         0.00000000
  55         0.00000000
  56         0.00000000
  57         0.00000000
  58        -0.00000000
  59         0.00000000
  60        -0.00000000
  61        -0.00000000
