[MOLDEN FORMAT]
[N_ATOMS]
                    1
[ATOMS] (AU)
BE          1      4           0.00000000      0.00000000      0.00000000
[5D]
[CHARGE] (MULLIKEN)
  -5.6843418860808015E-014
[GTO] (AU)
   1
   s   1
  0.227417420E+05  0.100000000E+01
   s   1
  0.338917969E+04  0.100000000E+01
   s   1
  0.764152152E+03  0.100000000E+01
   s   1
  0.212799182E+03  0.100000000E+01
   s   1
  0.675595853E+02  0.100000000E+01
   s   1
  0.234890379E+02  0.100000000E+01
   s   1
  0.876497987E+01  0.100000000E+01
   s   1
  0.348543146E+01  0.100000000E+01
   s   1
  0.145940472E+01  0.100000000E+01
   s   1
  0.611658075E+00  0.100000000E+01
   s   1
  0.258974430E+00  0.100000000E+01
   s   1
  0.104696880E+00  0.100000000E+01
   s   1
  0.426391350E-01  0.100000000E+01
   s   1
  0.149232450E-01  0.100000000E+01
   p   1
  0.337101840E+02  0.100000000E+01
   p   1
  0.805764950E+01  0.100000000E+01
   p   1
  0.283647140E+01  0.100000000E+01
   p   1
  0.109996570E+01  0.100000000E+01
   p   1
  0.443396400E+00  0.100000000E+01
   p   1
  0.182226400E+00  0.100000000E+01
   p   1
  0.757241000E-01  0.100000000E+01
   p   1
  0.316854000E-01  0.100000000E+01
   p   1
  0.110899000E-01  0.100000000E+01
   d   1
  0.140000000E+01  0.100000000E+01
   d   1
  0.490000000E+00  0.100000000E+01
   d   1
  0.171500000E+00  0.100000000E+01
   d   1
  0.600250000E-01  0.100000000E+01
 
[MO]
Sym=     1a  
Ene=     0.0000
Spin= Alpha
Occup=    1.99687
   1         0.00005309
   2         0.00041639
   3         0.00221711
   4         0.00952434
   5         0.03470236
   6         0.10571682
   7         0.24515789
   8         0.38625388
   9         0.31317303
  10         0.06614063
  11        -0.00470443
  12        -0.00591412
  13        -0.00291231
  14         0.00009443
  15         0.00000000
  16         0.00000000
  17        -0.00000000
  18         0.00000000
  19         0.00000000
  20        -0.00000000
  21         0.00000000
  22         0.00000000
  23         0.00000000
  24         0.00000000
  25         0.00000000
  26        -0.00000000
  27        -0.00000000
  28        -0.00000000
  29         0.00000000
  30         0.00000000
  31         0.00000000
  32        -0.00000000
  33        -0.00000000
  34        -0.00000000
  35         0.00000000
  36         0.00000000
  37        -0.00000000
  38        -0.00000000
  39         0.00000000
  40         0.00000000
  41         0.00000000
  42         0.00000000
  43         0.00000000
  44         0.00000000
  45        -0.00000000
  46         0.00000000
  47        -0.00000000
  48        -0.00000000
  49        -0.00000000
  50        -0.00000000
  51         0.00000000
  52         0.00000000
  53        -0.00000000
  54        -0.00000000
  55         0.00000000
  56         0.00000000
  57         0.00000000
  58        -0.00000000
  59        -0.00000000
  60         0.00000000
  61         0.00000000
Sym=     2a  
Ene=     0.0000
Spin= Alpha
Occup=    1.80733
   1        -0.00000933
   2        -0.00007322
   3        -0.00039030
   4        -0.00168414
   5        -0.00621184
   6        -0.01955543
   7        -0.04875173
   8        -0.09276041
   9        -0.13026140
  10        -0.06209106
  11         0.28799610
  12         0.62423005
  13         0.23372769
  14        -0.00184561
  15         0.00000000
  16         0.00000000
  17         0.00000000
  18         0.00000000
  19         0.00000000
  20         0.00000000
  21        -0.00000000
  22        -0.00000000
  23         0.00000000
  24         0.00000000
  25        -0.00000000
  26        -0.00000000
  27        -0.00000000
  28        -0.00000000
  29         0.00000000
  30        -0.00000000
  31        -0.00000000
  32        -0.00000000
  33         0.00000000
  34         0.00000001
  35         0.00000000
  36         0.00000000
  37         0.00000000
  38        -0.00000000
  39        -0.00000000
  40        -0.00000000
  41         0.00000000
  42         0.00000000
  43        -0.00000000
  44        -0.00000000
  45        -0.00000000
  46         0.00000000
  47         0.00000000
  48        -0.00000000
  49        -0.00000000
  50         0.00000000
  51         0.00000000
  52        -0.00000000
  53         0.00000000
  54         0.00000000
  55        -0.00000000
  56        -0.00000000
  57        -0.00000000
  58         0.00000000
  59         0.00000000
  60        -0.00000000
  61        -0.00000000
Sym=     3a  
Ene=     0.0000
Spin= Alpha
Occup=    0.00063
   1         0.00000000
   2        -0.00000000
   3         0.00000000
   4        -0.00000001
   5         0.00000005
   6        -0.00000023
   7         0.00000067
   8        -0.00000123
   9         0.00000153
  10        -0.00000128
  11         0.00000072
  12        -0.00000034
  13         0.00000019
  14        -0.00000006
  15        -0.02532702
  16        -0.05007489
  17         0.05614059
  18        -0.18591344
  19        -0.36757558
  20         0.41210096
  21        -0.14432684
  22        -0.28535334
  23         0.31991893
  24        -0.00527070
  25        -0.01042088
  26         0.01168319
  27         0.01360153
  28         0.02689204
  29        -0.03014954
  30         0.03377551
  31         0.06677867
  32        -0.07486775
  33         0.01633010
  34         0.03228678
  35        -0.03619776
  36         0.00076219
  37         0.00150694
  38        -0.00168948
  39         0.00000268
  40         0.00000530
  41        -0.00000594
  42         0.00000000
  43         0.00000000
  44         0.00000000
  45         0.00000000
  46        -0.00000000
  47        -0.00000000
  48        -0.00000000
  49        -0.00000000
  50        -0.00000000
  51         0.00000000
  52         0.00000000
  53         0.00000000
  54         0.00000000
  55         0.00000000
  56        -0.00000000
  57        -0.00000000
  58        -0.00000000
  59        -0.00000000
  60        -0.00000000
  61         0.00000000
Sym=     4a  
Ene=     0.0000
Spin= Alpha
Occup=    0.00063
   1         0.00000000
   2         0.00000000
   3         0.00000000
   4         0.00000000
   5         0.00000000
   6         0.00000003
   7         0.00000001
   8        -0.00000004
   9         0.00000002
  10        -0.00000005
  11         0.00000009
  12        -0.00000004
  13        -0.00000000
  14        -0.00000000
  15         0.02466080
  16         0.05043707
  17         0.05611297
  18         0.18102299
  19         0.37023420
  20         0.41189823
  21         0.14053031
  22         0.28741723
  23         0.31976152
  24         0.00513206
  25         0.01049627
  26         0.01167746
  27        -0.01324374
  28        -0.02708654
  29        -0.03013471
  30        -0.03288704
  31        -0.06726166
  32        -0.07483090
  33        -0.01590054
  34        -0.03252031
  35        -0.03617996
  36        -0.00074213
  37        -0.00151784
  38        -0.00168865
  39        -0.00000261
  40        -0.00000534
  41        -0.00000594
  42        -0.00000000
  43         0.00000000
  44         0.00000000
  45        -0.00000000
  46         0.00000000
  47         0.00000000
  48        -0.00000000
  49        -0.00000000
  50         0.00000000
  51        -0.00000000
  52        -0.00000000
  53         0.00000000
  54         0.00000000
  55        -0.00000000
  56         0.00000000
  57         0.00000000
  58        -0.00000000
  59        -0.00000000
  60         0.00000000
  61        -0.00000000
Sym=     5a  
Ene=     0.0000
Spin= Alpha
Occup=    0.00063
   1        -0.00000000
   2        -0.00000000
   3        -0.00000000
   4         0.00000000
   5        -0.00000000
   6         0.00000001
   7        -0.00000006
   8         0.00000011
   9        -0.00000012
  10         0.00000012
  11        -0.00000008
  12         0.00000004
  13        -0.00000001
  14         0.00000000
  15         0.07107113
  16        -0.03534580
  17         0.00053585
  18         0.52169886
  19        -0.25945647
  20         0.00393342
  21         0.40500108
  22        -0.20141917
  23         0.00305356
  24         0.01479033
  25        -0.00735567
  26         0.00011151
  27        -0.03816778
  28         0.01898198
  29        -0.00028777
  30        -0.09477875
  31         0.04713631
  32        -0.00071460
  33        -0.04582453
  34         0.02278991
  35        -0.00034550
  36        -0.00213880
  37         0.00106369
  38        -0.00001613
  39        -0.00000753
  40         0.00000374
  41        -0.00000006
  42         0.00000000
  43         0.00000000
  44        -0.00000000
  45         0.00000000
  46         0.00000000
  47        -0.00000000
  48         0.00000000
  49        -0.00000000
  50        -0.00000000
  51        -0.00000000
  52         0.00000000
  53         0.00000000
  54        -0.00000000
  55         0.00000000
  56         0.00000000
  57        -0.00000000
  58        -0.00000000
  59         0.00000000
  60        -0.00000000
  61        -0.00000000
Sym=     6a  
Ene=     0.0000
Spin= Alpha
Occup=    0.00125
   1         0.00008460
   2         0.00069076
   3         0.00352216
   4         0.01693187
   5         0.06812943
   6         0.34001701
   7         0.74109444
   8        -0.18899380
   9        -0.79387087
  10        -0.18300017
  11         0.07913712
  12         0.19352683
  13         0.07060653
  14        -0.00025781
  15         0.00000000
  16        -0.00000000
  17        -0.00000000
  18         0.00000000
  19        -0.00000001
  20        -0.00000001
  21        -0.00000000
  22        -0.00000001
  23        -0.00000001
  24        -0.00000000
  25        -0.00000000
  26         0.00000000
  27        -0.00000000
  28        -0.00000001
  29         0.00000000
  30        -0.00000001
  31        -0.00000002
  32         0.00000001
  33        -0.00000000
  34        -0.00000001
  35         0.00000001
  36         0.00000000
  37         0.00000000
  38         0.00000000
  39        -0.00000000
  40        -0.00000000
  41         0.00000000
  42         0.00000000
  43        -0.00000000
  44        -0.00000000
  45         0.00000000
  46         0.00000000
  47         0.00000000
  48        -0.00000000
  49        -0.00000000
  50         0.00000000
  51        -0.00000000
  52        -0.00000000
  53         0.00000000
  54         0.00000000
  55        -0.00000000
  56        -0.00000000
  57        -0.00000000
  58         0.00000000
  59         0.00000000
  60        -0.00000000
  61        -0.00000000
Sym=     7a  
Ene=     0.0000
Spin= Alpha
Occup=    0.06422
   1         0.00000000
   2         0.00000000
   3        -0.00000000
   4         0.00000000
   5        -0.00000000
   6         0.00000001
   7        -0.00000000
   8         0.00000001
   9         0.00000005
  10        -0.00000007
  11        -0.00000004
  12        -0.00000002
  13         0.00000008
  14        -0.00000000
  15         0.00035676
  16         0.00072821
  17         0.00081111
  18         0.00226319
  19         0.00461959
  20         0.00514553
  21         0.00645025
  22         0.01316614
  23         0.01466508
  24         0.01559962
  25         0.03184168
  26         0.03546679
  27         0.06975140
  28         0.14237534
  29         0.15858449
  30         0.16790216
  31         0.34271896
  32         0.38173683
  33         0.09325809
  34         0.19035679
  35         0.21202853
  36         0.00183212
  37         0.00373970
  38         0.00416546
  39         0.00063723
  40         0.00130071
  41         0.00144879
  42         0.00000000
  43        -0.00000000
  44        -0.00000000
  45         0.00000000
  46        -0.00000000
  47        -0.00000000
  48         0.00000000
  49         0.00000000
  50        -0.00000000
  51         0.00000000
  52         0.00000000
  53        -0.00000000
  54         0.00000000
  55         0.00000000
  56        -0.00000000
  57         0.00000000
  58        -0.00000000
  59        -0.00000000
  60         0.00000000
  61        -0.00000000
Sym=     8a  
Ene=     0.0000
Spin= Alpha
Occup=    0.06422
   1        -0.00000000
   2         0.00000000
   3        -0.00000000
   4         0.00000001
   5        -0.00000004
   6         0.00000020
   7        -0.00000055
   8         0.00000110
   9        -0.00000137
  10         0.00000113
  11        -0.00000072
  12         0.00000033
  13        -0.00000012
  14         0.00000006
  15         0.00036554
  16         0.00072411
  17        -0.00081087
  18         0.00231888
  19         0.00459358
  20        -0.00514400
  21         0.00660898
  22         0.01309205
  23        -0.01466077
  24         0.01598348
  25         0.03166245
  26        -0.03545632
  27         0.07146781
  28         0.14157400
  29        -0.15853774
  30         0.17203377
  31         0.34078993
  32        -0.38162420
  33         0.09555291
  34         0.18928532
  35        -0.21196594
  36         0.00187721
  37         0.00371865
  38        -0.00416423
  39         0.00065291
  40         0.00129338
  41        -0.00144836
  42         0.00000000
  43         0.00000000
  44         0.00000000
  45         0.00000000
  46        -0.00000000
  47        -0.00000000
  48        -0.00000000
  49        -0.00000000
  50        -0.00000000
  51         0.00000000
  52        -0.00000000
  53         0.00000000
  54         0.00000000
  55         0.00000000
  56        -0.00000000
  57         0.00000000
  58         0.00000000
  59         0.00000000
  60         0.00000000
  61        -0.00000000
Sym=     9a  
Ene=     0.0000
Spin= Alpha
Occup=    0.06422
   1        -0.00000000
   2         0.00000000
   3        -0.00000000
   4         0.00000000
   5        -0.00000000
   6         0.00000001
   7        -0.00000004
   8         0.00000008
   9        -0.00000012
  10         0.00000011
  11        -0.00000004
  12         0.00000003
  13        -0.00000003
  14         0.00000001
  15         0.00102693
  16        -0.00051073
  17         0.00000685
  18         0.00651458
  19        -0.00323997
  20         0.00004345
  21         0.01856701
  22        -0.00923413
  23         0.00012383
  24         0.04490338
  25        -0.02233227
  26         0.00029947
  27         0.20077884
  28        -0.09985546
  29         0.00133903
  30         0.48330494
  31        -0.24036715
  32         0.00322325
  33         0.26844261
  34        -0.13350739
  35         0.00179029
  36         0.00527375
  37        -0.00262285
  38         0.00003517
  39         0.00183426
  40        -0.00091225
  41         0.00001223
  42        -0.00000000
  43         0.00000000
  44        -0.00000000
  45        -0.00000000
  46        -0.00000000
  47         0.00000000
  48        -0.00000000
  49         0.00000000
  50         0.00000000
  51         0.00000000
  52         0.00000000
  53         0.00000000
  54        -0.00000000
  55        -0.00000000
  56        -0.00000000
  57        -0.00000000
  58        -0.00000000
  59         0.00000000
  60        -0.00000000
  61        -0.00000000
Sym=    10a  
Ene=     0.0275
Spin= Alpha
Occup=    0.00000
   1         0.00000000
   2        -0.00000000
   3         0.00000000
   4        -0.00000000
   5         0.00000000
   6        -0.00000000
   7         0.00000000
   8        -0.00000000
   9         0.00000000
  10        -0.00000000
  11        -0.00000000
  12        -0.00000001
  13         0.00000000
  14         0.00000001
  15        -0.00004685
  16        -0.00008472
  17         0.00009593
  18        -0.00011076
  19        -0.00020029
  20         0.00022678
  21        -0.00211966
  22        -0.00383282
  23         0.00433973
  24         0.00238852
  25         0.00431899
  26        -0.00489019
  27        -0.00911216
  28        -0.01647684
  29         0.01865597
  30         0.04153406
  31         0.07510293
  32        -0.08503558
  33        -0.06676096
  34        -0.12071884
  35         0.13668438
  36         0.22924314
  37         0.41452319
  38        -0.46934549
  39        -0.46580078
  40        -0.84227264
  41         0.95366647
  42         0.00000000
  43         0.00000000
  44         0.00000000
  45         0.00000000
  46        -0.00000000
  47        -0.00000000
  48        -0.00000000
  49        -0.00000000
  50        -0.00000000
  51         0.00000000
  52         0.00000000
  53         0.00000000
  54         0.00000000
  55         0.00000000
  56        -0.00000000
  57        -0.00000000
  58         0.00000000
  59         0.00000000
  60        -0.00000000
  61         0.00000000
Sym=    11a  
Ene=     0.0275
Spin= Alpha
Occup=    0.00000
   1        -0.00000000
   2        -0.00000000
   3        -0.00000000
   4        -0.00000000
   5        -0.00000000
   6        -0.00000000
   7        -0.00000000
   8         0.00000000
   9        -0.00000000
  10         0.00000000
  11        -0.00000000
  12         0.00000001
  13        -0.00000002
  14         0.00000003
  15         0.00011863
  16        -0.00006708
  17        -0.00000131
  18         0.00028045
  19        -0.00015859
  20        -0.00000309
  21         0.00536679
  22        -0.00303494
  23        -0.00005914
  24        -0.00604752
  25         0.00341990
  26         0.00006664
  27         0.02307116
  28        -0.01304685
  29        -0.00025422
  30        -0.10516039
  31         0.05946871
  32         0.00115877
  33         0.16903257
  34        -0.09558874
  35        -0.00186257
  36        -0.58042240
  37         0.32823168
  38         0.00639569
  39         1.17936441
  40        -0.66693629
  41        -0.01299545
  42         0.00000000
  43         0.00000000
  44        -0.00000000
  45         0.00000000
  46         0.00000000
  47        -0.00000000
  48        -0.00000000
  49         0.00000000
  50        -0.00000000
  51        -0.00000000
  52         0.00000000
  53         0.00000000
  54        -0.00000000
  55         0.00000000
  56         0.00000000
  57        -0.00000000
  58        -0.00000000
  59         0.00000000
  60        -0.00000000
  61        -0.00000000
Sym=    12a  
Ene=     0.0275
Spin= Alpha
Occup=    0.00000
   1        -0.00000000
   2        -0.00000000
   3        -0.00000000
   4        -0.00000000
   5        -0.00000000
   6        -0.00000000
   7        -0.00000000
   8         0.00000000
   9        -0.00000000
  10         0.00000001
  11        -0.00000001
  12         0.00000001
  13        -0.00000006
  14         0.00000008
  15        -0.00004803
  16        -0.00008305
  17        -0.00009680
  18        -0.00011355
  19        -0.00019633
  20        -0.00022885
  21        -0.00217288
  22        -0.00375704
  23        -0.00437950
  24         0.00244849
  25         0.00423359
  26         0.00493500
  27        -0.00934095
  28        -0.01615105
  29        -0.01882693
  30         0.04257690
  31         0.07361794
  32         0.08581483
  33        -0.06843719
  34        -0.11833190
  35        -0.13793693
  36         0.23499898
  37         0.40632695
  38         0.47364649
  39        -0.47749611
  40        -0.82561861
  41        -0.96240568
  42         0.00000000
  43        -0.00000000
  44        -0.00000000
  45         0.00000000
  46        -0.00000000
  47        -0.00000000
  48         0.00000000
  49         0.00000000
  50        -0.00000000
  51         0.00000000
  52         0.00000000
  53        -0.00000000
  54        -0.00000000
  55         0.00000000
  56        -0.00000000
  57         0.00000000
  58         0.00000000
  59         0.00000000
  60        -0.00000000
  61         0.00000000
Sym=    13a  
Ene=     0.0388
Spin= Alpha
Occup=    0.00000
   1         0.00000064
   2         0.00000159
   3         0.00003498
   4         0.00000529
   5         0.00071246
   6        -0.00013061
   7         0.01046732
   8        -0.00784355
   9         0.03452408
  10        -0.17769454
  11         0.28131342
  12        -0.65036024
  13         1.83920813
  14        -1.93669611
  15         0.00000000
  16         0.00000000
  17        -0.00000000
  18         0.00000000
  19         0.00000000
  20        -0.00000000
  21         0.00000000
  22         0.00000000
  23        -0.00000000
  24         0.00000000
  25         0.00000000
  26        -0.00000001
  27         0.00000000
  28         0.00000000
  29        -0.00000001
  30         0.00000000
  31         0.00000001
  32         0.00000000
  33        -0.00000000
  34        -0.00000001
  35        -0.00000001
  36         0.00000000
  37         0.00000006
  38         0.00000004
  39        -0.00000001
  40        -0.00000007
  41        -0.00000005
  42         0.00000000
  43        -0.00000000
  44        -0.00000000
  45         0.00000000
  46         0.00000000
  47        -0.00000000
  48         0.00000000
  49         0.00000000
  50         0.00000000
  51        -0.00000000
  52         0.00000000
  53        -0.00000000
  54        -0.00000000
  55         0.00000000
  56         0.00000000
  57        -0.00000000
  58         0.00000000
  59         0.00000000
  60        -0.00000000
  61        -0.00000000
Sym=    14a  
Ene=     0.1352
Spin= Alpha
Occup=    0.00000
   1         0.00000000
   2        -0.00000000
   3         0.00000000
   4        -0.00000000
   5         0.00000000
   6        -0.00000000
   7         0.00000000
   8        -0.00000001
   9         0.00000002
  10        -0.00000002
  11         0.00000003
  12        -0.00000010
  13         0.00000012
  14        -0.00000004
  15        -0.00000189
  16        -0.00000370
  17         0.00000409
  18        -0.00193745
  19        -0.00380083
  20         0.00419968
  21        -0.00023409
  22        -0.00045924
  23         0.00050743
  24        -0.01897263
  25        -0.03721996
  26         0.04112576
  27         0.05453812
  28         0.10699133
  29        -0.11821880
  30        -0.10948464
  31        -0.21478388
  32         0.23732290
  33         0.51972576
  34         1.01958330
  35        -1.12657647
  36        -0.83058584
  37        -1.62941981
  38         1.80040808
  39         0.32815785
  40         0.64377078
  41        -0.71132689
  42         0.00000000
  43         0.00000000
  44         0.00000000
  45         0.00000000
  46        -0.00000000
  47        -0.00000000
  48        -0.00000000
  49        -0.00000000
  50        -0.00000000
  51         0.00000000
  52         0.00000000
  53        -0.00000000
  54         0.00000000
  55         0.00000000
  56        -0.00000000
  57        -0.00000000
  58         0.00000000
  59         0.00000000
  60        -0.00000000
  61        -0.00000000
Sym=    15a  
Ene=     0.1352
Spin= Alpha
Occup=    0.00000
   1         0.00000000
   2         0.00000000
   3         0.00000000
   4         0.00000000
   5         0.00000000
   6         0.00000000
   7         0.00000000
   8         0.00000000
   9        -0.00000000
  10         0.00000000
  11        -0.00000001
  12         0.00000004
  13        -0.00000005
  14         0.00000002
  15        -0.00000520
  16         0.00000262
  17        -0.00000003
  18        -0.00534508
  19         0.00269568
  20        -0.00002619
  21        -0.00064583
  22         0.00032571
  23        -0.00000316
  24        -0.05234223
  25         0.02639772
  26        -0.00025647
  27         0.15046132
  28        -0.07588205
  29         0.00073724
  30        -0.30204938
  31         0.15233235
  32        -0.00147999
  33         1.43383436
  34        -0.72312466
  35         0.00702556
  36        -2.29144404
  37         1.15564234
  38        -0.01122771
  39         0.90533127
  40        -0.45658508
  41         0.00443598
  42        -0.00000000
  43        -0.00000000
  44         0.00000000
  45        -0.00000000
  46        -0.00000000
  47         0.00000000
  48         0.00000000
  49        -0.00000000
  50         0.00000000
  51         0.00000000
  52        -0.00000000
  53        -0.00000000
  54         0.00000000
  55        -0.00000000
  56        -0.00000000
  57         0.00000000
  58         0.00000000
  59        -0.00000000
  60        -0.00000000
  61         0.00000000
Sym=    16a  
Ene=     0.1352
Spin= Alpha
Occup=    0.00000
   1         0.00000000
   2         0.00000000
   3         0.00000000
   4         0.00000000
   5         0.00000000
   6         0.00000000
   7         0.00000000
   8         0.00000000
   9        -0.00000001
  10         0.00000001
  11        -0.00000004
  12         0.00000014
  13        -0.00000017
  14         0.00000008
  15         0.00000182
  16         0.00000366
  17         0.00000415
  18         0.00187448
  19         0.00375823
  20         0.00426607
  21         0.00022649
  22         0.00045409
  23         0.00051545
  24         0.01835605
  25         0.03680284
  26         0.04177584
  27        -0.05276574
  28        -0.10579228
  29        -0.12008750
  30         0.10592661
  31         0.21237680
  32         0.24107430
  33        -0.50283572
  34        -1.00815684
  35        -1.14438442
  36         0.80359345
  37         1.61115888
  38         1.82886734
  39        -0.31749336
  40        -0.63655602
  41        -0.72257090
  42        -0.00000000
  43         0.00000000
  44         0.00000000
  45        -0.00000000
  46         0.00000000
  47         0.00000000
  48        -0.00000000
  49        -0.00000000
  50         0.00000000
  51        -0.00000000
  52         0.00000000
  53         0.00000000
  54         0.00000000
  55        -0.00000000
  56         0.00000000
  57        -0.00000000
  58        -0.00000000
  59        -0.00000000
  60         0.00000000
  61         0.00000000
Sym=    17a  
Ene=     0.1841
Spin= Alpha
Occup=    0.00000
   1        -0.00000000
   2         0.00000000
   3        -0.00000000
   4         0.00000000
   5        -0.00000000
   6         0.00000000
   7        -0.00000000
   8         0.00000000
   9        -0.00000000
  10         0.00000000
  11        -0.00000000
  12         0.00000001
  13        -0.00000001
  14         0.00000000
  15         0.00000000
  16         0.00000000
  17        -0.00000000
  18         0.00000000
  19         0.00000000
  20        -0.00000000
  21         0.00000000
  22         0.00000000
  23        -0.00000000
  24         0.00000000
  25         0.00000000
  26        -0.00000000
  27        -0.00000000
  28        -0.00000000
  29         0.00000000
  30         0.00000000
  31         0.00000000
  32        -0.00000000
  33        -0.00000000
  34        -0.00000000
  35         0.00000000
  36         0.00000000
  37         0.00000000
  38        -0.00000000
  39        -0.00000000
  40        -0.00000000
  41         0.00000000
  42         0.00264110
  43        -0.00660353
  44        -0.00477126
  45        -0.00107055
  46         0.00658304
  47        -0.01671415
  48         0.04179031
  49         0.03019481
  50         0.00677497
  51        -0.04166063
  52         0.05115013
  53        -0.12789042
  54        -0.09240483
  55        -0.02073337
  56         0.12749355
  57        -0.27044778
  58         0.67619928
  59         0.48857513
  60         0.10962422
  61        -0.67410091
Sym=    18a  
Ene=     0.1841
Spin= Alpha
Occup=    0.00000
   1        -0.00000000
   2         0.00000000
   3        -0.00000000
   4         0.00000000
   5        -0.00000000
   6         0.00000000
   7        -0.00000000
   8         0.00000000
   9        -0.00000000
  10         0.00000000
  11        -0.00000000
  12         0.00000000
  13        -0.00000000
  14         0.00000000
  15        -0.00000000
  16         0.00000000
  17        -0.00000000
  18        -0.00000000
  19         0.00000000
  20         0.00000000
  21        -0.00000000
  22         0.00000000
  23        -0.00000000
  24         0.00000000
  25         0.00000000
  26         0.00000000
  27        -0.00000000
  28         0.00000000
  29        -0.00000000
  30         0.00000000
  31        -0.00000000
  32         0.00000000
  33        -0.00000000
  34        -0.00000000
  35        -0.00000000
  36         0.00000000
  37        -0.00000000
  38         0.00000000
  39        -0.00000000
  40         0.00000000
  41        -0.00000000
  42        -0.00325573
  43        -0.00754087
  44         0.00166344
  45        -0.00390507
  46        -0.00568757
  47         0.02060379
  48         0.04772220
  49        -0.01052703
  50         0.02471314
  51         0.03599369
  52        -0.06305354
  53        -0.14604371
  54         0.03221576
  55        -0.07562933
  56        -0.11015109
  57         0.33338510
  58         0.77218176
  59        -0.17033545
  60         0.39987746
  61         0.58240551
Sym=    19a  
Ene=     0.1841
Spin= Alpha
Occup=    0.00000
   1        -0.00000000
   2         0.00000000
   3        -0.00000000
   4         0.00000000
   5        -0.00000000
   6         0.00000000
   7        -0.00000000
   8         0.00000000
   9        -0.00000000
  10         0.00000000
  11        -0.00000000
  12         0.00000000
  13        -0.00000001
  14         0.00000000
  15        -0.00000000
  16         0.00000000
  17        -0.00000000
  18        -0.00000000
  19         0.00000000
  20        -0.00000000
  21        -0.00000000
  22         0.00000000
  23        -0.00000000
  24        -0.00000000
  25         0.00000000
  26        -0.00000000
  27         0.00000000
  28        -0.00000000
  29        -0.00000000
  30        -0.00000000
  31         0.00000000
  32         0.00000000
  33         0.00000000
  34        -0.00000000
  35         0.00000000
  36        -0.00000000
  37         0.00000000
  38        -0.00000000
  39         0.00000000
  40        -0.00000000
  41         0.00000000
  42         0.00116413
  43         0.00373211
  44        -0.00673941
  45        -0.00703911
  46        -0.00275263
  47        -0.00736719
  48        -0.02361856
  49         0.04265019
  50         0.04454686
  51         0.01741997
  52         0.02254571
  53         0.07227962
  54        -0.13052188
  55        -0.13632624
  56        -0.05331014
  57        -0.11920670
  58        -0.38216642
  59         0.69011267
  60         0.72080225
  61         0.28186848
Sym=    20a  
Ene=     0.1841
Spin= Alpha
Occup=    0.00000
   1         0.00000000
   2        -0.00000000
   3         0.00000000
   4        -0.00000000
   5         0.00000000
   6        -0.00000000
   7         0.00000000
   8        -0.00000000
   9         0.00000000
  10        -0.00000000
  11         0.00000000
  12        -0.00000001
  13         0.00000001
  14        -0.00000000
  15        -0.00000000
  16         0.00000000
  17         0.00000000
  18        -0.00000000
  19        -0.00000000
  20         0.00000000
  21        -0.00000000
  22         0.00000000
  23         0.00000000
  24        -0.00000000
  25        -0.00000000
  26        -0.00000000
  27         0.00000000
  28         0.00000000
  29         0.00000000
  30        -0.00000000
  31        -0.00000000
  32        -0.00000000
  33         0.00000000
  34         0.00000000
  35         0.00000000
  36        -0.00000000
  37        -0.00000000
  38        -0.00000000
  39         0.00000000
  40         0.00000000
  41         0.00000000
  42         0.00691906
  43         0.00024018
  44         0.00635873
  45        -0.00529083
  46         0.00121329
  47        -0.04378710
  48        -0.00151998
  49        -0.04024110
  50         0.03348292
  51        -0.00767830
  52         0.13400115
  53         0.00465158
  54         0.12314937
  55        -0.10246739
  56         0.02349781
  57        -0.70850875
  58        -0.02459443
  59        -0.65113179
  60         0.54177923
  61        -0.12424074
Sym=    21a  
Ene=     0.1841
Spin= Alpha
Occup=    0.00000
   1        -0.00000000
   2         0.00000000
   3        -0.00000000
   4         0.00000000
   5        -0.00000000
   6         0.00000000
   7        -0.00000000
   8         0.00000000
   9        -0.00000000
  10         0.00000000
  11        -0.00000000
  12         0.00000000
  13        -0.00000000
  14         0.00000000
  15        -0.00000000
  16        -0.00000000
  17        -0.00000000
  18        -0.00000000
  19        -0.00000000
  20        -0.00000000
  21        -0.00000000
  22        -0.00000000
  23        -0.00000000
  24        -0.00000000
  25        -0.00000000
  26        -0.00000000
  27        -0.00000000
  28        -0.00000000
  29         0.00000000
  30         0.00000000
  31         0.00000000
  32        -0.00000000
  33         0.00000000
  34         0.00000000
  35         0.00000000
  36         0.00000000
  37        -0.00000000
  38        -0.00000000
  39        -0.00000000
  40         0.00000000
  41         0.00000000
  42         0.00714323
  43        -0.00183627
  44        -0.00253860
  45         0.00488793
  46        -0.00575287
  47        -0.04520579
  48         0.01162078
  49         0.01606545
  50        -0.03093316
  51         0.03640690
  52         0.13834277
  53        -0.03556293
  54        -0.04916493
  55         0.09466441
  56        -0.11141562
  57        -0.73146436
  58         0.18803305
  59         0.25995135
  60        -0.50052229
  61         0.58909152
Sym=    22a  
Ene=     0.2559
Spin= Alpha
Occup=    0.00000
   1         0.00000079
   2         0.00002273
   3        -0.00000470
   4         0.00069190
   5        -0.00059962
   6         0.01162173
   7        -0.00778526
   8         0.11608594
   9        -0.28725794
  10         0.46516429
  11        -1.78059561
  12         4.46478656
  13        -4.43912455
  14         1.40382729
  15        -0.00000000
  16        -0.00000000
  17         0.00000000
  18        -0.00000000
  19        -0.00000000
  20         0.00000000
  21        -0.00000000
  22        -0.00000000
  23         0.00000000
  24        -0.00000001
  25        -0.00000002
  26         0.00000000
  27         0.00000000
  28         0.00000002
  29         0.00000001
  30        -0.00000002
  31        -0.00000007
  32        -0.00000000
  33         0.00000006
  34         0.00000023
  35         0.00000002
  36        -0.00000005
  37        -0.00000019
  38        -0.00000002
  39         0.00000002
  40         0.00000006
  41         0.00000001
  42        -0.00000000
  43         0.00000000
  44         0.00000000
  45        -0.00000000
  46         0.00000000
  47         0.00000000
  48        -0.00000000
  49        -0.00000000
  50         0.00000000
  51         0.00000000
  52        -0.00000000
  53         0.00000000
  54         0.00000000
  55        -0.00000000
  56        -0.00000000
  57         0.00000000
  58        -0.00000000
  59        -0.00000000
  60         0.00000000
  61         0.00000000
Sym=    23a  
Ene=     0.5115
Spin= Alpha
Occup=    0.00000
   1         0.00000000
   2        -0.00000000
   3         0.00000000
   4        -0.00000000
   5         0.00000000
   6        -0.00000000
   7         0.00000001
   8        -0.00000003
   9         0.00000004
  10         0.00000004
  11        -0.00000019
  12         0.00000030
  13        -0.00000022
  14         0.00000007
  15        -0.00062516
  16        -0.00123549
  17         0.00138286
  18        -0.00035899
  19        -0.00070946
  20         0.00079408
  21        -0.02870187
  22        -0.05672262
  23         0.06348863
  24         0.04355867
  25         0.08608367
  26        -0.09635192
  27        -0.18050584
  28        -0.35672814
  29         0.39927947
  30         0.81490966
  31         1.61048088
  32        -1.80258266
  33        -1.13268008
  34        -2.23848078
  35         2.50549180
  36         0.60866603
  37         1.20288794
  38        -1.34637112
  39        -0.16165703
  40        -0.31947780
  41         0.35758583
  42         0.00000000
  43         0.00000000
  44         0.00000000
  45         0.00000000
  46        -0.00000000
  47        -0.00000000
  48        -0.00000000
  49        -0.00000000
  50        -0.00000000
  51         0.00000000
  52         0.00000000
  53         0.00000000
  54         0.00000000
  55         0.00000000
  56        -0.00000000
  57        -0.00000000
  58        -0.00000000
  59        -0.00000000
  60        -0.00000000
  61         0.00000000
Sym=    24a  
Ene=     0.5115
Spin= Alpha
Occup=    0.00000
   1         0.00000000
   2        -0.00000000
   3         0.00000000
   4        -0.00000000
   5         0.00000000
   6        -0.00000000
   7         0.00000000
   8        -0.00000001
   9         0.00000001
  10        -0.00000002
  11         0.00000005
  12        -0.00000007
  13         0.00000005
  14        -0.00000001
  15        -0.00175223
  16         0.00087125
  17        -0.00001374
  18        -0.00100618
  19         0.00050030
  20        -0.00000789
  21        -0.08044662
  22         0.04000003
  23        -0.00063100
  24         0.12208779
  25        -0.06070505
  26         0.00095763
  27        -0.50592816
  28         0.25155991
  29        -0.00396837
  30         2.28405760
  31        -1.13568955
  32         0.01791557
  33        -3.17471571
  34         1.57854664
  35        -0.02490167
  36         1.70599064
  37        -0.84826045
  38         0.01338136
  39        -0.45309802
  40         0.22529147
  41        -0.00355399
  42        -0.00000000
  43         0.00000000
  44        -0.00000000
  45        -0.00000000
  46        -0.00000000
  47         0.00000000
  48        -0.00000000
  49         0.00000000
  50         0.00000000
  51         0.00000000
  52        -0.00000000
  53         0.00000000
  54        -0.00000000
  55        -0.00000000
  56        -0.00000000
  57         0.00000000
  58        -0.00000000
  59         0.00000000
  60         0.00000000
  61         0.00000000
Sym=    25a  
Ene=     0.5115
Spin= Alpha
Occup=    0.00000
   1        -0.00000000
   2         0.00000000
   3        -0.00000000
   4         0.00000000
   5        -0.00000000
   6         0.00000000
   7        -0.00000000
   8         0.00000001
   9        -0.00000002
  10         0.00000008
  11        -0.00000020
  12         0.00000029
  13        -0.00000021
  14         0.00000005
  15        -0.00060699
  16        -0.00124260
  17        -0.00138458
  18        -0.00034855
  19        -0.00071354
  20        -0.00079507
  21        -0.02786761
  22        -0.05704911
  23        -0.06356772
  24         0.04229257
  25         0.08657914
  26         0.09647196
  27        -0.17525917
  28        -0.35878138
  29        -0.39977692
  30         0.79122308
  31         1.61975042
  32         1.80482841
  33        -1.09975699
  34        -2.25136487
  35        -2.50861321
  36         0.59097421
  37         1.20981143
  38         1.34804846
  39        -0.15695821
  40        -0.32131663
  41        -0.35803132
  42         0.00000000
  43        -0.00000000
  44        -0.00000000
  45         0.00000000
  46        -0.00000000
  47        -0.00000000
  48         0.00000000
  49         0.00000000
  50        -0.00000000
  51         0.00000000
  52         0.00000000
  53        -0.00000000
  54        -0.00000000
  55         0.00000000
  56        -0.00000000
  57        -0.00000000
  58         0.00000000
  59         0.00000000
  60        -0.00000000
  61         0.00000000
Sym=    26a  
Ene=     0.6030
Spin= Alpha
Occup=    0.00000
   1         0.00000000
   2         0.00000000
   3         0.00000000
   4         0.00000000
   5        -0.00000000
   6         0.00000000
   7        -0.00000000
   8         0.00000000
   9        -0.00000000
  10         0.00000000
  11        -0.00000000
  12         0.00000000
  13        -0.00000000
  14         0.00000000
  15        -0.00000000
  16         0.00000000
  17         0.00000000
  18        -0.00000000
  19         0.00000000
  20         0.00000000
  21        -0.00000000
  22         0.00000000
  23         0.00000000
  24        -0.00000000
  25         0.00000000
  26         0.00000000
  27        -0.00000000
  28         0.00000000
  29         0.00000000
  30         0.00000000
  31         0.00000000
  32        -0.00000000
  33        -0.00000000
  34        -0.00000000
  35         0.00000000
  36         0.00000000
  37         0.00000000
  38        -0.00000000
  39        -0.00000000
  40        -0.00000000
  41         0.00000000
  42         0.02262472
  43        -0.02744621
  44        -0.01408030
  45        -0.00095858
  46         0.03006493
  47        -0.07427917
  48         0.09010859
  49         0.04622700
  50         0.00314711
  51        -0.09870610
  52         0.64825508
  53        -0.78640287
  54        -0.40343597
  55        -0.02746570
  56         0.86143572
  57        -0.33765414
  58         0.40961065
  59         0.21013615
  60         0.01430595
  61        -0.44869272
Sym=    27a  
Ene=     0.6030
Spin= Alpha
Occup=    0.00000
   1        -0.00000000
   2        -0.00000000
   3        -0.00000000
   4        -0.00000000
   5         0.00000000
   6        -0.00000000
   7         0.00000000
   8        -0.00000000
   9         0.00000000
  10        -0.00000000
  11         0.00000000
  12        -0.00000000
  13         0.00000000
  14        -0.00000000
  15         0.00000000
  16         0.00000000
  17        -0.00000000
  18         0.00000000
  19         0.00000000
  20        -0.00000000
  21         0.00000000
  22         0.00000000
  23        -0.00000000
  24         0.00000000
  25         0.00000000
  26        -0.00000000
  27         0.00000000
  28         0.00000000
  29        -0.00000000
  30        -0.00000000
  31        -0.00000000
  32         0.00000000
  33         0.00000000
  34         0.00000000
  35        -0.00000000
  36        -0.00000000
  37        -0.00000000
  38         0.00000000
  39         0.00000000
  40         0.00000000
  41        -0.00000000
  42         0.03329271
  43        -0.00432541
  44         0.01239444
  45         0.02417742
  46        -0.02242683
  47        -0.10930323
  48         0.01420073
  49        -0.04069215
  50        -0.07937683
  51         0.07362946
  52         0.95391984
  53        -0.12393376
  54         0.35513178
  55         0.69274378
  56        -0.64258494
  57        -0.49686457
  58         0.06455290
  59        -0.18497613
  60        -0.36082680
  61         0.33470076
Sym=    28a  
Ene=     0.6030
Spin= Alpha
Occup=    0.00000
   1         0.00000000
   2        -0.00000000
   3        -0.00000000
   4        -0.00000000
   5         0.00000000
   6        -0.00000000
   7         0.00000000
   8        -0.00000000
   9         0.00000000
  10        -0.00000000
  11         0.00000000
  12        -0.00000000
  13         0.00000000
  14        -0.00000000
  15        -0.00000000
  16         0.00000000
  17        -0.00000000
  18        -0.00000000
  19         0.00000000
  20        -0.00000000
  21        -0.00000000
  22         0.00000000
  23        -0.00000000
  24        -0.00000000
  25         0.00000000
  26        -0.00000000
  27        -0.00000000
  28         0.00000000
  29        -0.00000000
  30         0.00000000
  31        -0.00000000
  32         0.00000000
  33        -0.00000000
  34         0.00000000
  35        -0.00000000
  36         0.00000000
  37        -0.00000000
  38         0.00000000
  39        -0.00000000
  40         0.00000000
  41        -0.00000000
  42        -0.02386529
  43        -0.01873024
  44         0.02097425
  45         0.02954326
  46         0.01162534
  47         0.07835209
  48         0.06149320
  49        -0.06886052
  50        -0.09699342
  51        -0.03816711
  52        -0.68380062
  53        -0.53666835
  54         0.60096500
  55         0.84648868
  56         0.33309507
  57         0.35616861
  58         0.27953239
  59        -0.31302234
  60        -0.44090732
  61        -0.17349796
Sym=    29a  
Ene=     0.6030
Spin= Alpha
Occup=    0.00000
   1        -0.00000000
   2        -0.00000000
   3        -0.00000000
   4        -0.00000000
   5        -0.00000000
   6        -0.00000000
   7         0.00000000
   8        -0.00000000
   9         0.00000000
  10        -0.00000000
  11         0.00000000
  12        -0.00000000
  13         0.00000000
  14        -0.00000000
  15        -0.00000000
  16         0.00000000
  17        -0.00000000
  18        -0.00000000
  19         0.00000000
  20        -0.00000000
  21        -0.00000000
  22         0.00000000
  23        -0.00000000
  24        -0.00000000
  25         0.00000000
  26        -0.00000000
  27        -0.00000000
  28         0.00000000
  29        -0.00000000
  30         0.00000000
  31        -0.00000000
  32         0.00000000
  33        -0.00000000
  34         0.00000000
  35        -0.00000000
  36         0.00000000
  37        -0.00000000
  38         0.00000000
  39        -0.00000000
  40         0.00000000
  41        -0.00000000
  42         0.01057829
  43         0.03475965
  44         0.00852952
  45         0.01343251
  46         0.02819446
  47        -0.03472954
  48        -0.11411934
  49        -0.02800324
  50        -0.04410025
  51        -0.09256515
  52         0.30309445
  53         0.99595141
  54         0.24439209
  55         0.38487519
  56         0.80784200
  57        -0.15787165
  58        -0.51875740
  59        -0.12729557
  60        -0.20046847
  61        -0.42077757
Sym=    30a  
Ene=     0.6030
Spin= Alpha
Occup=    0.00000
   1        -0.00000000
   2        -0.00000000
   3        -0.00000000
   4        -0.00000000
   5        -0.00000000
   6        -0.00000000
   7         0.00000000
   8        -0.00000000
   9         0.00000000
  10        -0.00000000
  11         0.00000000
  12        -0.00000000
  13         0.00000000
  14        -0.00000000
  15         0.00000000
  16        -0.00000000
  17        -0.00000000
  18         0.00000000
  19        -0.00000000
  20        -0.00000000
  21         0.00000000
  22        -0.00000000
  23        -0.00000000
  24         0.00000000
  25        -0.00000000
  26        -0.00000000
  27         0.00000000
  28        -0.00000000
  29        -0.00000000
  30        -0.00000000
  31         0.00000000
  32         0.00000000
  33         0.00000000
  34        -0.00000000
  35        -0.00000000
  36        -0.00000000
  37         0.00000000
  38         0.00000000
  39         0.00000000
  40        -0.00000000
  41        -0.00000000
  42         0.00815543
  43        -0.00609812
  44         0.03877753
  45        -0.02701005
  46         0.00559534
  47        -0.02677507
  48         0.02002074
  49        -0.12731044
  50         0.08867664
  51        -0.01837003
  52         0.23367352
  53        -0.17472659
  54         1.11107379
  55        -0.77390585
  56         0.16032041
  57        -0.12171263
  58         0.09100917
  59        -0.57872075
  60         0.40310137
  61        -0.08350548
Sym=    31a  
Ene=     1.0990
Spin= Alpha
Occup=    0.00000
   1        -0.00000794
   2         0.00000543
   3        -0.00049100
   4         0.00076606
   5        -0.01063908
   6         0.01614176
   7        -0.15729481
   8         0.25854536
   9        -0.95556967
  10         3.86050074
  11        -6.95040236
  12         6.03885464
  13        -2.72875931
  14         0.67541842
  15         0.00000000
  16         0.00000000
  17        -0.00000000
  18         0.00000000
  19        -0.00000000
  20        -0.00000000
  21         0.00000001
  22         0.00000002
  23        -0.00000001
  24        -0.00000001
  25        -0.00000002
  26         0.00000000
  27         0.00000008
  28         0.00000020
  29        -0.00000006
  30        -0.00000012
  31        -0.00000035
  32         0.00000007
  33         0.00000009
  34         0.00000024
  35        -0.00000006
  36        -0.00000004
  37        -0.00000011
  38         0.00000003
  39         0.00000001
  40         0.00000003
  41        -0.00000001
  42         0.00000000
  43         0.00000000
  44         0.00000000
  45         0.00000000
  46        -0.00000000
  47        -0.00000000
  48         0.00000000
  49         0.00000000
  50        -0.00000000
  51        -0.00000000
  52         0.00000000
  53         0.00000000
  54         0.00000000
  55        -0.00000000
  56         0.00000000
  57        -0.00000000
  58         0.00000000
  59         0.00000000
  60        -0.00000000
  61        -0.00000000
Sym=    32a  
Ene=     1.6734
Spin= Alpha
Occup=    0.00000
   1        -0.00000000
   2         0.00000000
   3        -0.00000000
   4         0.00000000
   5        -0.00000000
   6         0.00000001
   7        -0.00000006
   8         0.00000016
   9        -0.00000037
  10         0.00000065
  11        -0.00000076
  12         0.00000052
  13        -0.00000019
  14         0.00000003
  15        -0.00039865
  16        -0.00077757
  17         0.00087871
  18         0.02155002
  19         0.04203353
  20        -0.04750129
  21        -0.01888998
  22        -0.03684509
  23         0.04163794
  24         0.30630659
  25         0.59745389
  26        -0.67517138
  27        -1.02963263
  28        -2.00830815
  29         2.26955119
  30         1.15053965
  31         2.24413843
  32        -2.53605855
  33        -0.69013414
  34        -1.34611313
  35         1.52121709
  36         0.30616385
  37         0.59717547
  38        -0.67485674
  39        -0.07799558
  40        -0.15213112
  41         0.17192051
  42        -0.00000000
  43        -0.00000000
  44        -0.00000000
  45        -0.00000000
  46         0.00000000
  47         0.00000000
  48         0.00000000
  49         0.00000001
  50         0.00000000
  51        -0.00000000
  52        -0.00000000
  53        -0.00000000
  54        -0.00000000
  55        -0.00000000
  56         0.00000000
  57         0.00000000
  58         0.00000000
  59         0.00000000
  60         0.00000000
  61        -0.00000000
Sym=    33a  
Ene=     1.6734
Spin= Alpha
Occup=    0.00000
   1         0.00000000
   2        -0.00000000
   3         0.00000000
   4        -0.00000000
   5         0.00000000
   6        -0.00000000
   7         0.00000000
   8        -0.00000001
   9         0.00000001
  10         0.00000002
  11        -0.00000005
  12         0.00000004
  13        -0.00000001
  14         0.00000000
  15         0.00110946
  16        -0.00055185
  17         0.00001501
  18        -0.05997505
  19         0.02983168
  20        -0.00081120
  21         0.05257198
  22        -0.02614939
  23         0.00071107
  24        -0.85247016
  25         0.42401998
  26        -0.01153017
  27         2.86553123
  28        -1.42531968
  29         0.03875803
  30        -3.20202291
  31         1.59269117
  32        -0.04330928
  33         1.92068593
  34        -0.95535216
  35         0.02597843
  36        -0.85207289
  37         0.42382238
  38        -0.01152480
  39         0.21706652
  40        -0.10796923
  41         0.00293595
  42        -0.00000000
  43         0.00000000
  44        -0.00000000
  45        -0.00000000
  46        -0.00000000
  47         0.00000000
  48        -0.00000000
  49         0.00000000
  50         0.00000001
  51         0.00000001
  52        -0.00000000
  53         0.00000000
  54        -0.00000000
  55        -0.00000000
  56        -0.00000000
  57         0.00000000
  58        -0.00000000
  59         0.00000000
  60         0.00000000
  61         0.00000000
Sym=    34a  
Ene=     1.6734
Spin= Alpha
Occup=    0.00000
   1         0.00000000
   2        -0.00000000
   3         0.00000000
   4        -0.00000000
   5         0.00000000
   6        -0.00000000
   7         0.00000001
   8        -0.00000001
   9         0.00000006
  10        -0.00000020
  11         0.00000031
  12        -0.00000022
  13         0.00000008
  14        -0.00000002
  15         0.00038189
  16         0.00079153
  17         0.00087367
  18        -0.02064422
  19        -0.04278840
  20        -0.04722884
  21         0.01809598
  22         0.03750678
  23         0.04139911
  24        -0.29343170
  25        -0.60818351
  26        -0.67129870
  27         0.98635441
  28         2.04437516
  29         2.25653336
  30        -1.10217937
  31        -2.28444067
  32        -2.52151204
  33         0.66112594
  34         1.37028783
  35         1.51249157
  36        -0.29329495
  37        -0.60790007
  38        -0.67098584
  39         0.07471722
  40         0.15486322
  41         0.17093439
  42         0.00000000
  43        -0.00000000
  44        -0.00000000
  45         0.00000000
  46        -0.00000000
  47        -0.00000000
  48         0.00000000
  49         0.00000001
  50        -0.00000000
  51         0.00000000
  52         0.00000000
  53        -0.00000000
  54        -0.00000000
  55         0.00000000
  56        -0.00000000
  57        -0.00000000
  58         0.00000000
  59         0.00000000
  60        -0.00000000
  61         0.00000000
Sym=    35a  
Ene=     1.7499
Spin= Alpha
Occup=    0.00000
   1         0.00000000
   2         0.00000000
   3         0.00000000
   4        -0.00000000
   5         0.00000000
   6        -0.00000000
   7         0.00000000
   8        -0.00000000
   9         0.00000000
  10        -0.00000000
  11         0.00000000
  12        -0.00000000
  13         0.00000000
  14        -0.00000000
  15         0.00000000
  16         0.00000000
  17        -0.00000000
  18        -0.00000000
  19        -0.00000000
  20         0.00000000
  21         0.00000000
  22         0.00000000
  23        -0.00000000
  24        -0.00000000
  25        -0.00000000
  26         0.00000000
  27         0.00000001
  28         0.00000001
  29        -0.00000001
  30        -0.00000001
  31        -0.00000001
  32         0.00000001
  33         0.00000000
  34         0.00000001
  35        -0.00000001
  36        -0.00000000
  37        -0.00000000
  38         0.00000000
  39         0.00000000
  40         0.00000000
  41        -0.00000000
  42         0.03481998
  43        -0.05130333
  44        -0.06121287
  45        -0.04929156
  46         0.05857445
  47        -0.43954961
  48         0.64762692
  49         0.77271992
  50         0.62223135
  51        -0.73941388
  52         0.32652894
  53        -0.48110367
  54        -0.57403172
  55        -0.46223802
  56         0.54928960
  57        -0.11326426
  58         0.16688215
  59         0.19911643
  60         0.16033815
  61        -0.19053404
Sym=    36a  
Ene=     1.7499
Spin= Alpha
Occup=    0.00000
   1         0.00000000
   2        -0.00000000
   3        -0.00000000
   4        -0.00000000
   5        -0.00000000
   6        -0.00000000
   7        -0.00000000
   8        -0.00000000
   9        -0.00000000
  10         0.00000000
  11        -0.00000000
  12         0.00000000
  13         0.00000000
  14         0.00000000
  15        -0.00000000
  16         0.00000000
  17        -0.00000000
  18         0.00000000
  19        -0.00000000
  20         0.00000000
  21        -0.00000000
  22         0.00000000
  23        -0.00000000
  24         0.00000000
  25        -0.00000000
  26         0.00000000
  27        -0.00000001
  28         0.00000001
  29        -0.00000000
  30         0.00000001
  31        -0.00000001
  32         0.00000000
  33        -0.00000001
  34         0.00000001
  35        -0.00000000
  36         0.00000000
  37        -0.00000000
  38         0.00000000
  39        -0.00000000
  40         0.00000000
  41        -0.00000000
  42         0.01917869
  43         0.06489568
  44        -0.03424902
  45        -0.07165407
  46        -0.05065107
  47        -0.24210191
  48        -0.81920978
  49         0.43234209
  50         0.90452420
  51         0.63939313
  52         0.17985064
  53         0.60856772
  54        -0.32117468
  55        -0.67194538
  56        -0.47498702
  57        -0.06238543
  58        -0.21109605
  59         0.11140701
  60         0.23308009
  61         0.16476044
Sym=    37a  
Ene=     1.7499
Spin= Alpha
Occup=    0.00000
   1         0.00000000
   2        -0.00000000
   3         0.00000000
   4        -0.00000000
   5         0.00000000
   6        -0.00000000
   7         0.00000000
   8        -0.00000000
   9         0.00000000
  10        -0.00000000
  11         0.00000000
  12        -0.00000000
  13         0.00000000
  14        -0.00000000
  15         0.00000000
  16         0.00000000
  17        -0.00000000
  18        -0.00000000
  19        -0.00000000
  20        -0.00000000
  21         0.00000000
  22         0.00000000
  23        -0.00000000
  24        -0.00000000
  25        -0.00000001
  26        -0.00000000
  27         0.00000001
  28         0.00000002
  29         0.00000000
  30        -0.00000001
  31        -0.00000002
  32        -0.00000000
  33         0.00000000
  34         0.00000001
  35         0.00000000
  36        -0.00000000
  37        -0.00000001
  38        -0.00000000
  39         0.00000000
  40         0.00000000
  41         0.00000000
  42        -0.10517128
  43         0.00317685
  44        -0.00470280
  45        -0.04120231
  46         0.02571509
  47         1.32762830
  48        -0.04010296
  49         0.05936575
  50         0.52011687
  51        -0.32461406
  52        -0.98625742
  53         0.02979135
  54        -0.04410113
  55        -0.38638007
  56         0.24114658
  57         0.34210663
  58        -0.01033383
  59         0.01529752
  60         0.13402503
  61        -0.08364737
Sym=    38a  
Ene=     1.7499
Spin= Alpha
Occup=    0.00000
   1        -0.00000000
   2        -0.00000000
   3        -0.00000000
   4         0.00000000
   5        -0.00000000
   6         0.00000000
   7        -0.00000000
   8         0.00000000
   9        -0.00000000
  10         0.00000000
  11        -0.00000000
  12         0.00000000
  13        -0.00000000
  14         0.00000000
  15        -0.00000000
  16         0.00000000
  17         0.00000000
  18         0.00000000
  19        -0.00000000
  20        -0.00000000
  21        -0.00000000
  22         0.00000000
  23         0.00000000
  24         0.00000000
  25        -0.00000000
  26        -0.00000000
  27        -0.00000001
  28         0.00000000
  29         0.00000001
  30         0.00000001
  31        -0.00000001
  32        -0.00000001
  33        -0.00000001
  34         0.00000000
  35         0.00000000
  36         0.00000000
  37        -0.00000000
  38        -0.00000000
  39        -0.00000000
  40         0.00000000
  41         0.00000000
  42         0.00629715
  43        -0.06651889
  44         0.06166369
  45        -0.05627805
  46        -0.04492279
  47        -0.07949202
  48         0.83970030
  49        -0.77841084
  50         0.71042522
  51         0.56708225
  52         0.05905237
  53        -0.62378954
  54         0.57825934
  55        -0.52775475
  56        -0.42126932
  57        -0.02048371
  58         0.21637610
  59        -0.20058288
  60         0.18306417
  61         0.14612719
Sym=    39a  
Ene=     1.7499
Spin= Alpha
Occup=    0.00000
   1         0.00000000
   2         0.00000000
   3         0.00000000
   4        -0.00000000
   5         0.00000000
   6        -0.00000000
   7         0.00000000
   8        -0.00000000
   9         0.00000000
  10        -0.00000000
  11         0.00000000
  12        -0.00000000
  13         0.00000000
  14        -0.00000000
  15        -0.00000000
  16        -0.00000000
  17        -0.00000000
  18         0.00000000
  19         0.00000000
  20         0.00000000
  21        -0.00000000
  22        -0.00000000
  23        -0.00000000
  24         0.00000000
  25         0.00000000
  26         0.00000000
  27        -0.00000001
  28        -0.00000000
  29        -0.00000001
  30         0.00000001
  31         0.00000001
  32         0.00000001
  33        -0.00000001
  34        -0.00000000
  35        -0.00000001
  36         0.00000000
  37         0.00000000
  38         0.00000000
  39        -0.00000000
  40        -0.00000000
  41        -0.00000000
  42        -0.02777044
  43        -0.04662368
  44        -0.06861169
  45         0.03198891
  46        -0.06911066
  47         0.35055985
  48         0.58855344
  49         0.86611881
  50        -0.40381166
  51         0.87241749
  52        -0.26042097
  53        -0.43721966
  54        -0.64341511
  55         0.29998023
  56        -0.64809421
  57         0.09033315
  58         0.15165994
  59         0.22318369
  60        -0.10405521
  61         0.22480675
Sym=    40a  
Ene=     4.2988
Spin= Alpha
Occup=    0.00000
   1        -0.00000124
   2         0.00028254
   3        -0.00072646
   4         0.00945426
   5        -0.02204456
   6         0.16752938
   7        -0.33766905
   8         2.15228201
   9        -6.16470857
  10         8.44463274
  11        -6.24326326
  12         3.16856204
  13        -1.40532694
  14         0.32674844
  15         0.00000000
  16         0.00000000
  17        -0.00000000
  18        -0.00000001
  19        -0.00000001
  20         0.00000001
  21         0.00000007
  22         0.00000012
  23        -0.00000011
  24        -0.00000026
  25        -0.00000045
  26         0.00000042
  27         0.00000027
  28         0.00000048
  29        -0.00000043
  30        -0.00000019
  31        -0.00000032
  32         0.00000033
  33         0.00000010
  34         0.00000018
  35        -0.00000015
  36        -0.00000004
  37        -0.00000008
  38         0.00000007
  39         0.00000001
  40         0.00000002
  41        -0.00000002
  42         0.00000000
  43        -0.00000000
  44        -0.00000000
  45         0.00000000
  46         0.00000000
  47        -0.00000000
  48         0.00000000
  49         0.00000000
  50        -0.00000000
  51        -0.00000000
  52         0.00000000
  53        -0.00000000
  54        -0.00000000
  55         0.00000000
  56         0.00000000
  57         0.00000000
  58         0.00000000
  59         0.00000000
  60         0.00000000
  61        -0.00000000
Sym=    41a  
Ene=     5.1856
Spin= Alpha
Occup=    0.00000
   1         0.00000000
   2        -0.00000000
   3         0.00000000
   4        -0.00000000
   5         0.00000000
   6        -0.00000000
   7         0.00000000
   8        -0.00000000
   9         0.00000000
  10        -0.00000000
  11         0.00000000
  12        -0.00000000
  13         0.00000000
  14        -0.00000000
  15        -0.00000000
  16         0.00000000
  17        -0.00000000
  18         0.00000000
  19         0.00000000
  20         0.00000000
  21        -0.00000000
  22         0.00000000
  23        -0.00000000
  24         0.00000000
  25         0.00000000
  26         0.00000000
  27        -0.00000000
  28        -0.00000000
  29        -0.00000000
  30         0.00000000
  31         0.00000000
  32         0.00000000
  33        -0.00000000
  34        -0.00000000
  35        -0.00000000
  36         0.00000000
  37         0.00000000
  38         0.00000000
  39        -0.00000000
  40        -0.00000000
  41        -0.00000000
  42         0.54167197
  43         0.71751871
  44        -0.36080347
  45         0.99120729
  46        -0.00661529
  47        -0.44399080
  48        -0.58812662
  49         0.29573880
  50        -0.81246021
  51         0.00542234
  52         0.21156756
  53         0.28025022
  54        -0.14092350
  55         0.38714817
  56        -0.00258382
  57        -0.06942588
  58        -0.09196409
  59         0.04624404
  60        -0.12704264
  61         0.00084788
Sym=    42a  
Ene=     5.1856
Spin= Alpha
Occup=    0.00000
   1         0.00000000
   2         0.00000000
   3        -0.00000000
   4         0.00000000
   5        -0.00000000
   6         0.00000000
   7        -0.00000000
   8         0.00000000
   9        -0.00000000
  10         0.00000000
  11        -0.00000000
  12         0.00000000
  13        -0.00000000
  14         0.00000000
  15         0.00000000
  16         0.00000000
  17         0.00000000
  18        -0.00000000
  19        -0.00000000
  20        -0.00000000
  21         0.00000000
  22         0.00000000
  23         0.00000000
  24        -0.00000000
  25        -0.00000000
  26        -0.00000000
  27         0.00000000
  28         0.00000000
  29         0.00000000
  30        -0.00000000
  31        -0.00000000
  32        -0.00000000
  33         0.00000000
  34         0.00000000
  35         0.00000000
  36        -0.00000000
  37        -0.00000000
  38        -0.00000000
  39         0.00000000
  40         0.00000000
  41         0.00000000
  42        -0.37025149
  43         0.22482326
  44         0.26145609
  45         0.14331749
  46         1.28235158
  47         0.30348304
  48        -0.18428028
  49        -0.21430700
  50        -0.11747266
  51        -1.05110166
  52        -0.14461373
  53         0.08781202
  54         0.10212016
  55         0.05597730
  56         0.50086402
  57         0.04745499
  58        -0.02881551
  59        -0.03351072
  60        -0.01836895
  61        -0.16435849
Sym=    43a  
Ene=     5.1856
Spin= Alpha
Occup=    0.00000
   1         0.00000000
   2         0.00000000
   3        -0.00000000
   4         0.00000000
   5        -0.00000000
   6         0.00000000
   7        -0.00000000
   8         0.00000000
   9        -0.00000000
  10         0.00000000
  11        -0.00000000
  12         0.00000000
  13        -0.00000000
  14         0.00000000
  15        -0.00000000
  16        -0.00000000
  17        -0.00000000
  18         0.00000000
  19         0.00000000
  20        -0.00000000
  21        -0.00000000
  22        -0.00000000
  23        -0.00000000
  24         0.00000000
  25         0.00000000
  26         0.00000000
  27        -0.00000000
  28        -0.00000000
  29        -0.00000000
  30         0.00000000
  31         0.00000000
  32         0.00000000
  33        -0.00000000
  34        -0.00000000
  35        -0.00000000
  36         0.00000000
  37         0.00000000
  38         0.00000000
  39        -0.00000000
  40        -0.00000000
  41        -0.00000000
  42         1.04553604
  43         0.17913185
  44         0.77083785
  45        -0.41937488
  46         0.16017587
  47        -0.85699170
  48        -0.14682852
  49        -0.63183058
  50         0.34374787
  51        -0.13129092
  52         0.40836803
  53         0.06996576
  54         0.30107574
  55        -0.16380047
  56         0.06256188
  57        -0.13400594
  58        -0.02295926
  59        -0.09879798
  60         0.05375111
  61        -0.02052968
Sym=    44a  
Ene=     5.1856
Spin= Alpha
Occup=    0.00000
   1         0.00000000
   2         0.00000000
   3        -0.00000000
   4         0.00000000
   5        -0.00000000
   6         0.00000000
   7        -0.00000000
   8         0.00000000
   9        -0.00000001
  10         0.00000001
  11        -0.00000000
  12         0.00000000
  13        -0.00000000
  14         0.00000000
  15        -0.00000000
  16        -0.00000000
  17         0.00000000
  18         0.00000000
  19         0.00000000
  20        -0.00000000
  21        -0.00000000
  22        -0.00000000
  23         0.00000000
  24         0.00000000
  25         0.00000000
  26        -0.00000000
  27        -0.00000000
  28        -0.00000000
  29         0.00000000
  30         0.00000000
  31         0.00000000
  32        -0.00000000
  33        -0.00000000
  34        -0.00000000
  35         0.00000000
  36         0.00000000
  37         0.00000000
  38        -0.00000000
  39        -0.00000000
  40        -0.00000000
  41         0.00000000
  42        -0.56071568
  43         0.30973935
  44         1.03615424
  45         0.45617421
  46        -0.47844055
  47         0.45960031
  48        -0.25388322
  49        -0.84930175
  50        -0.37391108
  51         0.39216208
  52        -0.21900571
  53         0.12097875
  54         0.40470366
  55         0.17817364
  56        -0.18687048
  57         0.07186671
  58        -0.03969917
  59        -0.13280347
  60        -0.05846767
  61         0.06132153
Sym=    45a  
Ene=     5.1856
Spin= Alpha
Occup=    0.00000
   1         0.00000000
   2         0.00000000
   3        -0.00000000
   4         0.00000000
   5        -0.00000000
   6         0.00000000
   7        -0.00000000
   8         0.00000000
   9        -0.00000000
  10         0.00000000
  11        -0.00000000
  12         0.00000000
  13        -0.00000000
  14         0.00000000
  15        -0.00000000
  16         0.00000000
  17         0.00000000
  18         0.00000000
  19        -0.00000000
  20        -0.00000000
  21        -0.00000000
  22         0.00000000
  23         0.00000000
  24         0.00000000
  25        -0.00000000
  26        -0.00000000
  27        -0.00000000
  28         0.00000000
  29         0.00000000
  30         0.00000000
  31        -0.00000000
  32        -0.00000000
  33        -0.00000000
  34         0.00000000
  35         0.00000000
  36         0.00000000
  37        -0.00000000
  38        -0.00000000
  39        -0.00000000
  40         0.00000000
  41         0.00000000
  42        -0.28794799
  43         1.10794907
  44        -0.23369082
  45        -0.73072185
  46        -0.14807233
  47         0.23602156
  48        -0.90814962
  49         0.19154872
  50         0.59894881
  51         0.12137005
  52        -0.11246743
  53         0.43274546
  54        -0.09127553
  55        -0.28540713
  56        -0.05783445
  57         0.03690618
  58        -0.14200539
  59         0.02995206
  60         0.09365633
  61         0.01897837
Sym=    46a  
Ene=     5.6385
Spin= Alpha
Occup=    0.00000
   1         0.00000000
   2         0.00000000
   3         0.00000000
   4         0.00000000
   5         0.00000000
   6         0.00000001
   7         0.00000005
   8         0.00000019
   9        -0.00000096
  10         0.00000143
  11        -0.00000100
  12         0.00000048
  13        -0.00000024
  14         0.00000007
  15        -0.01138404
  16        -0.01324534
  17         0.01815739
  18         0.03465835
  19         0.04032501
  20        -0.05527958
  21        -0.66931701
  22        -0.77875068
  23         1.06755123
  24         1.54381515
  25         1.79622970
  26        -2.46236349
  27        -1.40768869
  28        -1.63784651
  29         2.24524371
  30         0.86947237
  31         1.01163154
  32        -1.38679622
  33        -0.49939618
  34        -0.58104771
  35         0.79652990
  36         0.20923003
  37         0.24343925
  38        -0.33371896
  39        -0.05455422
  40        -0.06347386
  41         0.08701321
  42         0.00000000
  43        -0.00000000
  44        -0.00000000
  45        -0.00000000
  46         0.00000000
  47        -0.00000000
  48         0.00000000
  49         0.00000000
  50         0.00000000
  51        -0.00000000
  52        -0.00000000
  53        -0.00000000
  54        -0.00000000
  55        -0.00000000
  56         0.00000000
  57         0.00000000
  58         0.00000000
  59         0.00000000
  60         0.00000000
  61        -0.00000000
Sym=    47a  
Ene=     5.6385
Spin= Alpha
Occup=    0.00000
   1         0.00000000
   2         0.00000000
   3         0.00000000
   4         0.00000000
   5         0.00000000
   6         0.00000000
   7         0.00000000
   8         0.00000004
   9        -0.00000012
  10         0.00000016
  11        -0.00000010
  12         0.00000005
  13        -0.00000003
  14         0.00000001
  15         0.02138668
  16        -0.01264134
  17         0.00418717
  18        -0.06511107
  19         0.03848617
  20        -0.01274769
  21         1.25741541
  22        -0.74323928
  23         0.24618156
  24        -2.90029528
  25         1.71432079
  26        -0.56783082
  27         2.64456070
  28        -1.56315993
  29         0.51776213
  30        -1.63343817
  31         0.96550066
  32        -0.31980073
  33         0.93819289
  34        -0.55455166
  35         0.18368296
  36        -0.39307094
  37         0.23233830
  38        -0.07695692
  39         0.10248853
  40        -0.06057942
  41         0.02006559
  42         0.00000000
  43         0.00000000
  44        -0.00000000
  45        -0.00000000
  46        -0.00000000
  47        -0.00000000
  48        -0.00000000
  49         0.00000000
  50         0.00000000
  51         0.00000000
  52        -0.00000000
  53         0.00000000
  54        -0.00000000
  55        -0.00000000
  56        -0.00000000
  57         0.00000000
  58        -0.00000000
  59         0.00000000
  60         0.00000000
  61         0.00000000
Sym=    48a  
Ene=     5.6385
Spin= Alpha
Occup=    0.00000
   1         0.00000000
   2        -0.00000000
   3         0.00000000
   4        -0.00000000
   5         0.00000000
   6        -0.00000000
   7         0.00000001
   8        -0.00000008
   9         0.00000019
  10        -0.00000021
  11         0.00000011
  12        -0.00000005
  13         0.00000004
  14        -0.00000001
  15         0.00690938
  16         0.01730559
  17         0.01695591
  18        -0.02103539
  19        -0.05268632
  20        -0.05162174
  21         0.40623236
  22         1.01747052
  23         0.99691148
  24        -0.93699647
  25        -2.34684968
  26        -2.29942917
  27         0.85437646
  28         2.13991535
  29         2.09667617
  30        -0.52771378
  31        -1.32173916
  32        -1.29503206
  33         0.30310135
  34         0.75916328
  35         0.74382360
  36        -0.12698917
  37        -0.31806362
  38        -0.31163682
  39         0.03311090
  40         0.08293127
  41         0.08125556
  42         0.00000000
  43        -0.00000000
  44         0.00000000
  45         0.00000000
  46        -0.00000000
  47        -0.00000000
  48         0.00000000
  49        -0.00000000
  50        -0.00000000
  51         0.00000000
  52         0.00000000
  53        -0.00000000
  54        -0.00000000
  55         0.00000000
  56        -0.00000000
  57        -0.00000000
  58         0.00000000
  59         0.00000000
  60        -0.00000000
  61         0.00000000
Sym=    49a  
Ene=    16.7350
Spin= Alpha
Occup=    0.00000
   1         0.00010320
   2        -0.00045098
   3         0.00728786
   4        -0.02290586
   5         0.17339203
   6        -0.48536962
   7         3.20718180
   8        -7.03815415
   9         7.57798864
  10        -5.09407140
  11         2.95047546
  12        -1.56334771
  13         0.59943162
  14        -0.15155628
  15         0.00000000
  16         0.00000000
  17        -0.00000001
  18        -0.00000007
  19        -0.00000008
  20         0.00000014
  21         0.00000019
  22         0.00000024
  23        -0.00000040
  24        -0.00000015
  25        -0.00000019
  26         0.00000032
  27         0.00000011
  28         0.00000015
  29        -0.00000023
  30        -0.00000004
  31        -0.00000004
  32         0.00000010
  33         0.00000004
  34         0.00000006
  35        -0.00000009
  36        -0.00000001
  37        -0.00000002
  38         0.00000003
  39         0.00000000
  40         0.00000001
  41        -0.00000001
  42        -0.00000000
  43         0.00000000
  44         0.00000000
  45        -0.00000000
  46        -0.00000000
  47        -0.00000000
  48         0.00000000
  49         0.00000000
  50        -0.00000000
  51         0.00000000
  52         0.00000000
  53        -0.00000000
  54        -0.00000000
  55         0.00000000
  56         0.00000000
  57         0.00000000
  58        -0.00000000
  59        -0.00000000
  60         0.00000000
  61         0.00000000
Sym=    50a  
Ene=    21.8830
Spin= Alpha
Occup=    0.00000
   1        -0.00000000
   2         0.00000000
   3        -0.00000000
   4         0.00000000
   5        -0.00000000
   6         0.00000002
   7        -0.00000008
   8         0.00000015
   9        -0.00000014
  10         0.00000010
  11        -0.00000008
  12         0.00000004
  13        -0.00000001
  14         0.00000000
  15        -0.01923931
  16        -0.04039119
  17        -0.04437207
  18         0.51398880
  19         1.07907279
  20         1.18542430
  21        -0.84197753
  22        -1.76765533
  23        -1.94187232
  24         0.64449386
  25         1.35305631
  26         1.48641116
  27        -0.41610589
  28        -0.87357651
  29        -0.95967467
  30         0.26246774
  31         0.55102717
  32         0.60533544
  33        -0.13398856
  34        -0.28129680
  35        -0.30902091
  36         0.06100769
  37         0.12808010
  38         0.14070345
  39        -0.01602353
  40        -0.03363995
  41        -0.03695544
  42         0.00000000
  43        -0.00000000
  44        -0.00000000
  45         0.00000000
  46        -0.00000000
  47        -0.00000000
  48         0.00000000
  49         0.00000000
  50        -0.00000000
  51         0.00000000
  52         0.00000000
  53        -0.00000000
  54        -0.00000000
  55         0.00000000
  56        -0.00000000
  57        -0.00000000
  58         0.00000000
  59         0.00000000
  60        -0.00000000
  61         0.00000000
Sym=    51a  
Ene=    21.8830
Spin= Alpha
Occup=    0.00000
   1         0.00000000
   2        -0.00000000
   3         0.00000000
   4        -0.00000000
   5         0.00000000
   6        -0.00000001
   7         0.00000005
   8        -0.00000012
   9         0.00000014
  10        -0.00000010
  11         0.00000006
  12        -0.00000003
  13         0.00000001
  14        -0.00000000
  15        -0.05641000
  16         0.02805748
  17        -0.00108143
  18         1.50702420
  19        -0.74957102
  20         0.02889103
  21        -2.46869292
  22         1.22789049
  23        -0.04732710
  24         1.88966734
  25        -0.93989193
  26         0.03622665
  27        -1.22002978
  28         0.60682434
  29        -0.02338909
  30         0.76956002
  31        -0.38276751
  32         0.01475317
  33        -0.39285680
  34         0.19540102
  35        -0.00753142
  36         0.17887562
  37        -0.08897002
  38         0.00342921
  39        -0.04698128
  40         0.02336778
  41        -0.00090067
  42        -0.00000000
  43        -0.00000000
  44        -0.00000000
  45        -0.00000000
  46        -0.00000000
  47         0.00000000
  48        -0.00000000
  49         0.00000000
  50         0.00000000
  51         0.00000000
  52        -0.00000000
  53        -0.00000000
  54        -0.00000000
  55        -0.00000000
  56        -0.00000000
  57         0.00000000
  58         0.00000000
  59        -0.00000000
  60         0.00000000
  61         0.00000000
Sym=    52a  
Ene=    21.8830
Spin= Alpha
Occup=    0.00000
   1        -0.00000000
   2         0.00000000
   3        -0.00000000
   4         0.00000000
   5        -0.00000002
   6         0.00000004
   7        -0.00000042
   8         0.00000105
   9        -0.00000128
  10         0.00000097
  11        -0.00000056
  12         0.00000028
  13        -0.00000013
  14         0.00000004
  15         0.02045093
  16         0.03939301
  17        -0.04472616
  18        -0.54635787
  19        -1.05240608
  20         1.19488405
  21         0.89500209
  22         1.72397193
  23        -1.95736855
  24        -0.68508165
  25        -1.31961874
  26         1.49827279
  27         0.44231066
  28         0.85198814
  29        -0.96733291
  30        -0.27899697
  31        -0.53740985
  32         0.61016605
  33         0.14242665
  34         0.27434522
  35        -0.31148691
  36        -0.06484972
  37        -0.12491491
  38         0.14182627
  39         0.01703263
  40         0.03280862
  41        -0.03725035
  42        -0.00000000
  43        -0.00000000
  44        -0.00000000
  45        -0.00000000
  46         0.00000000
  47         0.00000000
  48         0.00000000
  49         0.00000000
  50         0.00000000
  51        -0.00000000
  52        -0.00000000
  53        -0.00000000
  54        -0.00000000
  55        -0.00000000
  56         0.00000000
  57         0.00000000
  58         0.00000000
  59         0.00000000
  60         0.00000000
  61        -0.00000000
