[MOLDEN FORMAT]
[N_ATOMS]
                    1
[ATOMS] (AU)
BE          1      4           0.00000000      0.00000000      0.00000000
[5D]
[CHARGE] (MULLIKEN)
   0.0000000000000000     
[GTO] (AU)
   1
   s   1
  0.227417420E+05  0.100000000E+01
   s   1
  0.338917969E+04  0.100000000E+01
   s   1
  0.764152152E+03  0.100000000E+01
   s   1
  0.212799182E+03  0.100000000E+01
   s   1
  0.675595853E+02  0.100000000E+01
   s   1
  0.234890379E+02  0.100000000E+01
   s   1
  0.876497987E+01  0.100000000E+01
   s   1
  0.348543146E+01  0.100000000E+01
   s   1
  0.145940472E+01  0.100000000E+01
   s   1
  0.611658075E+00  0.100000000E+01
   s   1
  0.258974430E+00  0.100000000E+01
   s   1
  0.104696880E+00  0.100000000E+01
   s   1
  0.426391350E-01  0.100000000E+01
   s   1
  0.149232450E-01  0.100000000E+01
   p   1
  0.337101840E+02  0.100000000E+01
   p   1
  0.805764950E+01  0.100000000E+01
   p   1
  0.283647140E+01  0.100000000E+01
   p   1
  0.109996570E+01  0.100000000E+01
   p   1
  0.443396400E+00  0.100000000E+01
   p   1
  0.182226400E+00  0.100000000E+01
   p   1
  0.757241000E-01  0.100000000E+01
   p   1
  0.316854000E-01  0.100000000E+01
   p   1
  0.110899000E-01  0.100000000E+01
   d   1
  0.140000000E+01  0.100000000E+01
   d   1
  0.490000000E+00  0.100000000E+01
   d   1
  0.171500000E+00  0.100000000E+01
   d   1
  0.600250000E-01  0.100000000E+01
 
[MO]
Sym=     1a  
Ene=    -4.7332
Spin= Alpha
Occup=    2.00000
   1         0.00008403
   2         0.00045743
   3         0.00227175
   4         0.00958887
   5         0.03474197
   6         0.10555589
   7         0.24488406
   8         0.38568570
   9         0.31186412
  10         0.06518932
  11        -0.00228998
  12        -0.00049263
  13        -0.00089365
  14         0.00012660
  15        -0.00000000
  16        -0.00000000
  17        -0.00000000
  18        -0.00000000
  19        -0.00000000
  20         0.00000000
  21        -0.00000000
  22        -0.00000000
  23        -0.00000000
  24        -0.00000000
  25        -0.00000000
  26         0.00000000
  27         0.00000000
  28        -0.00000000
  29         0.00000000
  30        -0.00000000
  31        -0.00000000
  32        -0.00000000
  33         0.00000000
  34        -0.00000000
  35         0.00000000
  36         0.00000000
  37        -0.00000000
  38         0.00000000
  39         0.00000000
  40        -0.00000000
  41        -0.00000000
  42         0.00000000
  43         0.00000000
  44        -0.00000000
  45         0.00000000
  46         0.00000000
  47         0.00000000
  48        -0.00000000
  49         0.00000000
  50        -0.00000000
  51        -0.00000000
  52        -0.00000000
  53        -0.00000000
  54         0.00000000
  55         0.00000000
  56        -0.00000000
  57         0.00000000
  58         0.00000000
  59         0.00000000
  60        -0.00000000
  61         0.00000000
Sym=     2a  
Ene=    -0.3093
Spin= Alpha
Occup=    2.00000
   1        -0.00001585
   2        -0.00008581
   3        -0.00042846
   4        -0.00181159
   5        -0.00664885
   6        -0.02082482
   7        -0.05180245
   8        -0.09812761
   9        -0.13560693
  10        -0.06531875
  11         0.30964058
  12         0.62753957
  13         0.21365455
  14        -0.00401970
  15         0.00000000
  16        -0.00000000
  17        -0.00000000
  18         0.00000000
  19        -0.00000000
  20         0.00000000
  21         0.00000000
  22        -0.00000000
  23        -0.00000000
  24         0.00000000
  25        -0.00000000
  26        -0.00000000
  27         0.00000000
  28        -0.00000000
  29         0.00000000
  30        -0.00000000
  31        -0.00000000
  32        -0.00000000
  33        -0.00000000
  34        -0.00000000
  35         0.00000000
  36        -0.00000000
  37        -0.00000000
  38        -0.00000000
  39        -0.00000000
  40        -0.00000000
  41         0.00000000
  42        -0.00000000
  43         0.00000000
  44         0.00000000
  45        -0.00000000
  46         0.00000000
  47        -0.00000000
  48        -0.00000000
  49        -0.00000000
  50         0.00000000
  51         0.00000000
  52        -0.00000000
  53         0.00000000
  54         0.00000000
  55        -0.00000000
  56        -0.00000000
  57        -0.00000000
  58        -0.00000000
  59        -0.00000000
  60        -0.00000000
  61         0.00000000
Sym=     3a  
Ene=     3.0243
Spin= Alpha
Occup=    0.00000
   1         0.00000000
   2         0.00000000
   3         0.00000000
   4         0.00000000
   5         0.00000000
   6         0.00000000
   7         0.00000000
   8         0.00000000
   9         0.00000000
  10         0.00000000
  11        -0.00000000
  12        -0.00000000
  13        -0.00000000
  14         0.00000000
  15        -0.00000000
  16         0.00000000
  17         0.00005414
  18        -0.00000000
  19        -0.00000000
  20        -0.00048381
  21        -0.00000000
  22        -0.00000000
  23         0.00233991
  24        -0.00000000
  25         0.00000000
  26        -0.00853733
  27        -0.00000000
  28        -0.00000000
  29         0.02698798
  30         0.00000000
  31         0.00000000
  32        -0.07842331
  33         0.00000000
  34        -0.00000000
  35         0.21105341
  36         0.00000000
  37        -0.00000000
  38        -0.48537986
  39         0.00000000
  40         0.00000000
  41         1.25839548
  42         0.00000000
  43         0.00000000
  44        -0.00000000
  45         0.00000000
  46         0.00000000
  47         0.00000000
  48         0.00000000
  49         0.00000000
  50        -0.00000000
  51        -0.00000000
  52         0.00000000
  53        -0.00000000
  54        -0.00000000
  55         0.00000000
  56         0.00000000
  57         0.00000000
  58         0.00000000
  59         0.00000000
  60         0.00000000
  61        -0.00000000
Sym=     4a  
Ene=     3.0243
Spin= Alpha
Occup=    0.00000
   1         0.00000000
   2         0.00000000
   3         0.00000000
   4         0.00000000
   5         0.00000000
   6         0.00000000
   7         0.00000000
   8         0.00000000
   9         0.00000000
  10         0.00000000
  11         0.00000000
  12         0.00000000
  13         0.00000000
  14        -0.00000000
  15         0.00000000
  16         0.00005414
  17        -0.00000000
  18        -0.00000000
  19        -0.00048381
  20         0.00000000
  21         0.00000000
  22         0.00233991
  23        -0.00000000
  24        -0.00000000
  25        -0.00853733
  26        -0.00000000
  27        -0.00000000
  28         0.02698798
  29         0.00000000
  30         0.00000000
  31        -0.07842331
  32        -0.00000000
  33        -0.00000000
  34         0.21105341
  35         0.00000000
  36         0.00000000
  37        -0.48537986
  38        -0.00000000
  39        -0.00000000
  40         1.25839548
  41         0.00000000
  42        -0.00000000
  43         0.00000000
  44         0.00000000
  45        -0.00000000
  46         0.00000000
  47         0.00000000
  48        -0.00000000
  49        -0.00000000
  50         0.00000000
  51        -0.00000000
  52        -0.00000000
  53        -0.00000000
  54         0.00000000
  55         0.00000000
  56        -0.00000000
  57         0.00000000
  58         0.00000000
  59        -0.00000000
  60        -0.00000000
  61         0.00000000
Sym=     5a  
Ene=     3.0243
Spin= Alpha
Occup=    0.00000
   1        -0.00000000
   2        -0.00000000
   3        -0.00000000
   4        -0.00000000
   5        -0.00000000
   6        -0.00000000
   7        -0.00000000
   8        -0.00000000
   9        -0.00000000
  10        -0.00000000
  11         0.00000000
  12         0.00000000
  13         0.00000000
  14        -0.00000000
  15         0.00005414
  16         0.00000000
  17        -0.00000000
  18        -0.00048381
  19         0.00000000
  20         0.00000000
  21         0.00233991
  22         0.00000000
  23         0.00000000
  24        -0.00853733
  25         0.00000000
  26        -0.00000000
  27         0.02698798
  28         0.00000000
  29         0.00000000
  30        -0.07842331
  31         0.00000000
  32        -0.00000000
  33         0.21105341
  34         0.00000000
  35         0.00000000
  36        -0.48537986
  37         0.00000000
  38        -0.00000000
  39         1.25839548
  40         0.00000000
  41         0.00000000
  42        -0.00000000
  43        -0.00000000
  44         0.00000000
  45        -0.00000000
  46        -0.00000000
  47        -0.00000000
  48        -0.00000000
  49        -0.00000000
  50         0.00000000
  51         0.00000000
  52        -0.00000000
  53         0.00000000
  54         0.00000000
  55        -0.00000000
  56        -0.00000000
  57        -0.00000000
  58        -0.00000000
  59        -0.00000000
  60        -0.00000000
  61         0.00000000
Sym=     6a  
Ene=     3.0387
Spin= Alpha
Occup=    0.00000
   1        -0.00000018
   2         0.00000216
   3        -0.00001535
   4         0.00008359
   5        -0.00036074
   6         0.00154401
   7        -0.00462126
   8         0.01983579
   9        -0.03787122
  10         0.14607694
  11        -0.27955712
  12         0.66969868
  13        -1.83431156
  14         1.93524578
  15         0.00000000
  16        -0.00000000
  17        -0.00000000
  18         0.00000000
  19         0.00000000
  20         0.00000000
  21         0.00000000
  22         0.00000000
  23         0.00000000
  24         0.00000000
  25        -0.00000000
  26        -0.00000000
  27         0.00000000
  28         0.00000000
  29         0.00000000
  30        -0.00000000
  31         0.00000000
  32        -0.00000000
  33        -0.00000000
  34        -0.00000000
  35         0.00000000
  36        -0.00000000
  37         0.00000000
  38        -0.00000000
  39        -0.00000000
  40        -0.00000000
  41         0.00000000
  42        -0.00000000
  43         0.00000000
  44         0.00000000
  45         0.00000000
  46        -0.00000000
  47         0.00000000
  48        -0.00000000
  49        -0.00000000
  50        -0.00000000
  51        -0.00000000
  52        -0.00000000
  53         0.00000000
  54         0.00000000
  55         0.00000000
  56         0.00000000
  57         0.00000000
  58        -0.00000000
  59        -0.00000000
  60        -0.00000000
  61        -0.00000000
Sym=     7a  
Ene=     3.0954
Spin= Alpha
Occup=    0.00000
   1        -0.00000000
   2        -0.00000000
   3        -0.00000000
   4        -0.00000000
   5        -0.00000000
   6        -0.00000000
   7        -0.00000000
   8        -0.00000000
   9        -0.00000000
  10        -0.00000000
  11         0.00000000
  12         0.00000000
  13         0.00000000
  14        -0.00000000
  15         0.00000000
  16         0.00000000
  17        -0.00017520
  18         0.00000000
  19         0.00000000
  20         0.00156768
  21         0.00000000
  22         0.00000000
  23        -0.00760347
  24         0.00000000
  25        -0.00000000
  26         0.02792513
  27         0.00000000
  28         0.00000000
  29        -0.08961760
  30        -0.00000000
  31        -0.00000000
  32         0.26936035
  33        -0.00000000
  34         0.00000000
  35        -0.77967746
  36        -0.00000000
  37         0.00000000
  38         2.05621769
  39        -0.00000000
  40         0.00000000
  41        -1.01234483
  42        -0.00000000
  43         0.00000000
  44         0.00000000
  45        -0.00000000
  46         0.00000000
  47        -0.00000000
  48        -0.00000000
  49        -0.00000000
  50         0.00000000
  51         0.00000000
  52        -0.00000000
  53         0.00000000
  54         0.00000000
  55        -0.00000000
  56        -0.00000000
  57        -0.00000000
  58        -0.00000000
  59        -0.00000000
  60        -0.00000000
  61         0.00000000
Sym=     8a  
Ene=     3.0954
Spin= Alpha
Occup=    0.00000
   1         0.00000000
   2         0.00000000
   3         0.00000000
   4         0.00000000
   5         0.00000000
   6         0.00000000
   7         0.00000000
   8         0.00000000
   9         0.00000000
  10         0.00000000
  11         0.00000000
  12         0.00000000
  13         0.00000000
  14        -0.00000000
  15         0.00000000
  16        -0.00017520
  17        -0.00000000
  18        -0.00000000
  19         0.00156768
  20         0.00000000
  21         0.00000000
  22        -0.00760347
  23        -0.00000000
  24         0.00000000
  25         0.02792513
  26        -0.00000000
  27        -0.00000000
  28        -0.08961760
  29         0.00000000
  30         0.00000000
  31         0.26936035
  32        -0.00000000
  33        -0.00000000
  34        -0.77967746
  35         0.00000000
  36        -0.00000000
  37         2.05621769
  38        -0.00000000
  39         0.00000000
  40        -1.01234483
  41         0.00000000
  42        -0.00000000
  43         0.00000000
  44         0.00000000
  45        -0.00000000
  46         0.00000000
  47         0.00000000
  48        -0.00000000
  49        -0.00000000
  50         0.00000000
  51        -0.00000000
  52        -0.00000000
  53        -0.00000000
  54         0.00000000
  55         0.00000000
  56        -0.00000000
  57         0.00000000
  58         0.00000000
  59        -0.00000000
  60        -0.00000000
  61         0.00000000
Sym=     9a  
Ene=     3.0954
Spin= Alpha
Occup=    0.00000
   1        -0.00000000
   2        -0.00000000
   3        -0.00000000
   4        -0.00000000
   5        -0.00000000
   6        -0.00000000
   7        -0.00000000
   8        -0.00000000
   9        -0.00000000
  10        -0.00000000
  11         0.00000000
  12         0.00000000
  13         0.00000000
  14        -0.00000000
  15        -0.00017520
  16         0.00000000
  17        -0.00000000
  18         0.00156768
  19         0.00000000
  20        -0.00000000
  21        -0.00760347
  22         0.00000000
  23         0.00000000
  24         0.02792513
  25         0.00000000
  26        -0.00000000
  27        -0.08961760
  28         0.00000000
  29         0.00000000
  30         0.26936035
  31         0.00000000
  32        -0.00000000
  33        -0.77967746
  34         0.00000000
  35         0.00000000
  36         2.05621769
  37         0.00000000
  38        -0.00000000
  39        -1.01234483
  40         0.00000000
  41         0.00000000
  42        -0.00000000
  43        -0.00000000
  44         0.00000000
  45        -0.00000000
  46        -0.00000000
  47        -0.00000000
  48        -0.00000000
  49        -0.00000000
  50         0.00000000
  51         0.00000000
  52        -0.00000000
  53         0.00000000
  54         0.00000000
  55        -0.00000000
  56        -0.00000000
  57        -0.00000000
  58        -0.00000000
  59        -0.00000000
  60        -0.00000000
  61         0.00000000
Sym=    10a  
Ene=     3.1944
Spin= Alpha
Occup=    0.00000
   1         0.00000000
   2        -0.00000000
   3         0.00000000
   4        -0.00000000
   5         0.00000000
   6        -0.00000000
   7         0.00000000
   8        -0.00000000
   9         0.00000000
  10        -0.00000000
  11         0.00000000
  12        -0.00000000
  13         0.00000000
  14        -0.00000000
  15        -0.00000000
  16        -0.00000000
  17        -0.00000000
  18         0.00000000
  19        -0.00000000
  20         0.00000000
  21        -0.00000000
  22         0.00000000
  23        -0.00000000
  24         0.00000000
  25        -0.00000000
  26        -0.00000000
  27         0.00000000
  28         0.00000000
  29         0.00000000
  30        -0.00000000
  31        -0.00000000
  32        -0.00000000
  33        -0.00000000
  34        -0.00000000
  35         0.00000000
  36         0.00000000
  37        -0.00000000
  38        -0.00000000
  39        -0.00000000
  40        -0.00000000
  41         0.00000000
  42         0.00063224
  43        -0.00207286
  44        -0.00407406
  45        -0.01181448
  46         0.00000000
  47        -0.00323268
  48         0.01059856
  49         0.02083071
  50         0.06040760
  51        -0.00000000
  52         0.01357485
  53        -0.04450614
  54        -0.08747359
  55        -0.25366725
  56         0.00000000
  57        -0.05702961
  58         0.18697572
  59         0.36748726
  60         1.06568716
  61        -0.00000000
Sym=    11a  
Ene=     3.1944
Spin= Alpha
Occup=    0.00000
   1         0.00000000
   2        -0.00000000
   3         0.00000000
   4        -0.00000000
   5         0.00000000
   6        -0.00000000
   7         0.00000000
   8        -0.00000000
   9         0.00000000
  10        -0.00000000
  11         0.00000000
  12        -0.00000000
  13         0.00000000
  14        -0.00000000
  15        -0.00000000
  16         0.00000000
  17        -0.00000000
  18         0.00000000
  19        -0.00000000
  20         0.00000000
  21        -0.00000000
  22         0.00000000
  23        -0.00000000
  24        -0.00000000
  25        -0.00000000
  26         0.00000000
  27         0.00000000
  28        -0.00000000
  29         0.00000000
  30         0.00000000
  31        -0.00000000
  32        -0.00000000
  33         0.00000000
  34        -0.00000000
  35         0.00000000
  36         0.00000000
  37        -0.00000000
  38        -0.00000000
  39         0.00000000
  40        -0.00000000
  41         0.00000000
  42        -0.01245678
  43        -0.00232256
  44        -0.00055307
  45        -0.00006840
  46         0.00000000
  47         0.06369171
  48         0.01187531
  49         0.00282788
  50         0.00034974
  51        -0.00000000
  52        -0.26745809
  53        -0.04986752
  54        -0.01187501
  55        -0.00146863
  56         0.00000000
  57         1.12362420
  58         0.20949954
  59         0.04988836
  60         0.00616990
  61        -0.00000002
Sym=    12a  
Ene=     3.1944
Spin= Alpha
Occup=    0.00000
   1        -0.00000000
   2         0.00000000
   3        -0.00000000
   4         0.00000000
   5        -0.00000000
   6         0.00000000
   7        -0.00000000
   8         0.00000000
   9        -0.00000000
  10         0.00000000
  11        -0.00000000
  12         0.00000000
  13        -0.00000000
  14         0.00000000
  15         0.00000000
  16         0.00000000
  17         0.00000000
  18        -0.00000000
  19         0.00000000
  20        -0.00000000
  21         0.00000000
  22        -0.00000000
  23         0.00000000
  24        -0.00000000
  25         0.00000000
  26         0.00000000
  27        -0.00000000
  28        -0.00000000
  29        -0.00000000
  30         0.00000000
  31         0.00000000
  32         0.00000000
  33         0.00000000
  34         0.00000000
  35        -0.00000000
  36        -0.00000000
  37         0.00000000
  38         0.00000000
  39         0.00000000
  40         0.00000000
  41        -0.00000000
  42         0.00211112
  43        -0.00990548
  44        -0.00645586
  45         0.00407711
  46         0.00000000
  47        -0.01079421
  48         0.05064686
  49         0.03300890
  50        -0.02084633
  51        -0.00000000
  52         0.04532769
  53        -0.21267936
  54        -0.13861297
  55         0.08753919
  56         0.00000000
  57        -0.19042719
  58         0.89349202
  59         0.58233004
  60        -0.36776287
  61        -0.00000000
Sym=    13a  
Ene=     3.1944
Spin= Alpha
Occup=    0.00000
   1         0.00000000
   2        -0.00000000
   3         0.00000000
   4         0.00000000
   5        -0.00000000
   6         0.00000000
   7        -0.00000000
   8         0.00000000
   9        -0.00000000
  10         0.00000000
  11        -0.00000000
  12         0.00000000
  13        -0.00000000
  14         0.00000000
  15        -0.00000000
  16        -0.00000000
  17        -0.00000000
  18        -0.00000000
  19        -0.00000000
  20         0.00000000
  21        -0.00000000
  22        -0.00000000
  23        -0.00000000
  24        -0.00000000
  25        -0.00000000
  26         0.00000000
  27         0.00000000
  28        -0.00000000
  29         0.00000000
  30        -0.00000000
  31         0.00000000
  32        -0.00000000
  33         0.00000000
  34        -0.00000000
  35         0.00000000
  36         0.00000000
  37         0.00000000
  38         0.00000000
  39         0.00000000
  40        -0.00000000
  41        -0.00000000
  42        -0.00000000
  43         0.00000000
  44        -0.00000000
  45         0.00000000
  46        -0.01268370
  47         0.00000000
  48        -0.00000000
  49         0.00000000
  50        -0.00000000
  51         0.06485196
  52        -0.00000001
  53         0.00000001
  54        -0.00000002
  55         0.00000000
  56        -0.27233027
  57         0.00000003
  58        -0.00000005
  59         0.00000007
  60        -0.00000001
  61         1.14409279
Sym=    14a  
Ene=     3.1944
Spin= Alpha
Occup=    0.00000
   1         0.00000000
   2        -0.00000000
   3         0.00000000
   4        -0.00000000
   5         0.00000000
   6        -0.00000000
   7         0.00000000
   8        -0.00000000
   9         0.00000000
  10        -0.00000000
  11         0.00000000
  12        -0.00000000
  13         0.00000000
  14        -0.00000000
  15        -0.00000000
  16         0.00000000
  17        -0.00000000
  18         0.00000000
  19        -0.00000000
  20         0.00000000
  21        -0.00000000
  22         0.00000000
  23        -0.00000000
  24        -0.00000000
  25        -0.00000000
  26         0.00000000
  27         0.00000000
  28        -0.00000000
  29         0.00000000
  30        -0.00000000
  31        -0.00000000
  32        -0.00000000
  33         0.00000000
  34        -0.00000000
  35         0.00000000
  36         0.00000000
  37        -0.00000000
  38        -0.00000000
  39         0.00000000
  40        -0.00000000
  41         0.00000000
  42         0.00092103
  43        -0.00728469
  44         0.01011407
  45        -0.00216030
  46        -0.00000000
  47        -0.00470925
  48         0.03724674
  49        -0.05171338
  50         0.01104565
  51         0.00000000
  52         0.01977538
  53        -0.15640876
  54         0.21715795
  55        -0.04638355
  56        -0.00000002
  57        -0.08307878
  58         0.65709234
  59        -0.91230713
  60         0.19486298
  61         0.00000009
Sym=    15a  
Ene=     3.2535
Spin= Alpha
Occup=    0.00000
   1         0.00000084
   2        -0.00001028
   3         0.00007380
   4        -0.00039266
   5         0.00180334
   6        -0.00667323
   7         0.02722673
   8        -0.07105659
   9         0.27059956
  10        -0.55018955
  11         1.73087227
  12        -4.32800928
  13         4.39386219
  14        -1.39560488
  15        -0.00000000
  16        -0.00000000
  17        -0.00000000
  18         0.00000000
  19        -0.00000000
  20         0.00000000
  21        -0.00000000
  22         0.00000000
  23        -0.00000000
  24        -0.00000000
  25        -0.00000000
  26        -0.00000000
  27         0.00000000
  28         0.00000000
  29         0.00000000
  30        -0.00000000
  31        -0.00000000
  32        -0.00000000
  33         0.00000000
  34        -0.00000000
  35         0.00000000
  36         0.00000000
  37        -0.00000000
  38        -0.00000000
  39         0.00000000
  40        -0.00000000
  41         0.00000000
  42        -0.00000000
  43         0.00000000
  44         0.00000000
  45         0.00000000
  46        -0.00000000
  47         0.00000000
  48        -0.00000000
  49        -0.00000000
  50        -0.00000000
  51         0.00000000
  52        -0.00000000
  53         0.00000000
  54         0.00000000
  55         0.00000000
  56        -0.00000000
  57         0.00000000
  58        -0.00000000
  59        -0.00000000
  60        -0.00000000
  61         0.00000000
Sym=    16a  
Ene=     3.2725
Spin= Alpha
Occup=    0.00000
   1         0.00000000
   2         0.00000000
   3         0.00000000
   4         0.00000000
   5         0.00000000
   6         0.00000000
   7         0.00000000
   8         0.00000000
   9         0.00000000
  10         0.00000000
  11        -0.00000000
  12        -0.00000000
  13        -0.00000000
  14         0.00000000
  15        -0.00000000
  16        -0.00000000
  17         0.00048206
  18        -0.00000000
  19        -0.00000000
  20        -0.00432606
  21        -0.00000000
  22        -0.00000000
  23         0.02112083
  24        -0.00000000
  25        -0.00000000
  26        -0.07873550
  27        -0.00000000
  28        -0.00000000
  29         0.26110420
  30         0.00000000
  31         0.00000000
  32        -0.83986870
  33         0.00000000
  34        -0.00000000
  35         2.70051420
  36         0.00000000
  37        -0.00000000
  38        -2.09522173
  39         0.00000000
  40        -0.00000000
  41         0.62439656
  42         0.00000000
  43         0.00000000
  44        -0.00000000
  45         0.00000000
  46         0.00000000
  47         0.00000000
  48         0.00000000
  49         0.00000000
  50        -0.00000000
  51        -0.00000000
  52         0.00000000
  53        -0.00000000
  54        -0.00000000
  55         0.00000000
  56         0.00000000
  57         0.00000000
  58         0.00000000
  59         0.00000000
  60         0.00000000
  61        -0.00000000
Sym=    17a  
Ene=     3.2725
Spin= Alpha
Occup=    0.00000
   1         0.00000000
   2         0.00000000
   3         0.00000000
   4         0.00000000
   5         0.00000000
   6         0.00000000
   7         0.00000000
   8         0.00000000
   9         0.00000000
  10         0.00000000
  11         0.00000000
  12         0.00000000
  13         0.00000000
  14        -0.00000000
  15         0.00000000
  16         0.00048206
  17        -0.00000000
  18        -0.00000000
  19        -0.00432606
  20         0.00000000
  21         0.00000000
  22         0.02112083
  23        -0.00000000
  24         0.00000000
  25        -0.07873550
  26        -0.00000000
  27        -0.00000000
  28         0.26110420
  29         0.00000000
  30         0.00000000
  31        -0.83986870
  32        -0.00000000
  33        -0.00000000
  34         2.70051420
  35         0.00000000
  36        -0.00000000
  37        -2.09522173
  38        -0.00000000
  39        -0.00000000
  40         0.62439656
  41         0.00000000
  42        -0.00000000
  43         0.00000000
  44         0.00000000
  45        -0.00000000
  46         0.00000000
  47         0.00000000
  48        -0.00000000
  49        -0.00000000
  50         0.00000000
  51        -0.00000000
  52        -0.00000000
  53        -0.00000000
  54         0.00000000
  55         0.00000000
  56        -0.00000000
  57         0.00000000
  58         0.00000000
  59        -0.00000000
  60        -0.00000000
  61         0.00000000
Sym=    18a  
Ene=     3.2725
Spin= Alpha
Occup=    0.00000
   1        -0.00000000
   2        -0.00000000
   3        -0.00000000
   4        -0.00000000
   5        -0.00000000
   6        -0.00000000
   7        -0.00000000
   8        -0.00000000
   9        -0.00000000
  10        -0.00000000
  11         0.00000000
  12         0.00000000
  13         0.00000000
  14        -0.00000000
  15         0.00048206
  16         0.00000000
  17         0.00000000
  18        -0.00432606
  19         0.00000000
  20        -0.00000000
  21         0.02112083
  22         0.00000000
  23         0.00000000
  24        -0.07873550
  25         0.00000000
  26        -0.00000000
  27         0.26110420
  28         0.00000000
  29         0.00000000
  30        -0.83986870
  31         0.00000000
  32        -0.00000000
  33         2.70051420
  34         0.00000000
  35         0.00000000
  36        -2.09522173
  37         0.00000000
  38        -0.00000000
  39         0.62439656
  40         0.00000000
  41         0.00000000
  42        -0.00000000
  43        -0.00000000
  44         0.00000000
  45        -0.00000000
  46        -0.00000000
  47        -0.00000000
  48        -0.00000000
  49        -0.00000000
  50         0.00000000
  51         0.00000000
  52        -0.00000000
  53         0.00000000
  54         0.00000000
  55        -0.00000000
  56        -0.00000000
  57        -0.00000000
  58        -0.00000000
  59        -0.00000000
  60        -0.00000000
  61         0.00000000
Sym=    19a  
Ene=     3.6948
Spin= Alpha
Occup=    0.00000
   1        -0.00000000
   2         0.00000000
   3        -0.00000000
   4         0.00000000
   5        -0.00000000
   6         0.00000000
   7        -0.00000000
   8         0.00000000
   9        -0.00000000
  10         0.00000000
  11        -0.00000000
  12         0.00000000
  13         0.00000000
  14         0.00000000
  15        -0.00000000
  16         0.00000000
  17         0.00000000
  18         0.00000000
  19        -0.00000000
  20        -0.00000000
  21         0.00000000
  22         0.00000000
  23         0.00000000
  24         0.00000000
  25        -0.00000000
  26        -0.00000000
  27         0.00000000
  28         0.00000000
  29         0.00000000
  30        -0.00000000
  31         0.00000000
  32        -0.00000000
  33        -0.00000000
  34        -0.00000000
  35         0.00000000
  36        -0.00000000
  37         0.00000000
  38        -0.00000000
  39        -0.00000000
  40        -0.00000000
  41         0.00000000
  42         0.00077751
  43         0.01515114
  44         0.00624356
  45         0.04601306
  46        -0.00000000
  47        -0.00435982
  48        -0.08495820
  49        -0.03501001
  50        -0.25801267
  51         0.00000000
  52         0.02334551
  53         0.45492576
  54         0.18746811
  55         1.38158063
  56        -0.00000000
  57        -0.01111067
  58        -0.21650971
  59        -0.08922042
  60        -0.65752623
  61         0.00000000
Sym=    20a  
Ene=     3.6948
Spin= Alpha
Occup=    0.00000
   1         0.00000000
   2         0.00000000
   3        -0.00000000
   4         0.00000000
   5        -0.00000000
   6         0.00000000
   7        -0.00000000
   8         0.00000000
   9        -0.00000000
  10         0.00000000
  11        -0.00000000
  12         0.00000000
  13        -0.00000000
  14         0.00000000
  15         0.00000000
  16         0.00000000
  17         0.00000000
  18         0.00000000
  19         0.00000000
  20        -0.00000000
  21         0.00000000
  22         0.00000000
  23         0.00000000
  24        -0.00000000
  25         0.00000000
  26        -0.00000000
  27         0.00000000
  28         0.00000000
  29        -0.00000000
  30        -0.00000000
  31         0.00000000
  32         0.00000000
  33        -0.00000000
  34         0.00000000
  35        -0.00000000
  36        -0.00000000
  37         0.00000000
  38         0.00000000
  39        -0.00000000
  40         0.00000000
  41         0.00000000
  42        -0.00097104
  43        -0.00488008
  44         0.04834477
  45        -0.00493663
  46         0.00000000
  47         0.00544501
  48         0.02736446
  49        -0.27108746
  50         0.02768159
  51        -0.00000000
  52        -0.02915640
  53        -0.14652848
  54         1.45159221
  55        -0.14822661
  56         0.00000000
  57         0.01387620
  58         0.06973630
  59        -0.69084637
  60         0.07054448
  61        -0.00000000
Sym=    21a  
Ene=     3.6948
Spin= Alpha
Occup=    0.00000
   1        -0.00000000
   2        -0.00000000
   3         0.00000000
   4        -0.00000000
   5         0.00000000
   6        -0.00000000
   7         0.00000000
   8        -0.00000000
   9         0.00000000
  10        -0.00000000
  11         0.00000000
  12        -0.00000000
  13         0.00000000
  14        -0.00000000
  15        -0.00000000
  16        -0.00000000
  17        -0.00000000
  18        -0.00000000
  19        -0.00000000
  20         0.00000000
  21        -0.00000000
  22        -0.00000000
  23        -0.00000000
  24        -0.00000000
  25        -0.00000000
  26         0.00000000
  27        -0.00000000
  28        -0.00000000
  29         0.00000000
  30         0.00000000
  31        -0.00000000
  32        -0.00000000
  33         0.00000000
  34        -0.00000000
  35         0.00000000
  36         0.00000000
  37        -0.00000000
  38        -0.00000000
  39         0.00000000
  40        -0.00000000
  41        -0.00000000
  42         0.00399259
  43         0.04600061
  44         0.00312672
  45        -0.01563878
  46         0.00000000
  47        -0.02238796
  48        -0.25794290
  49        -0.01753272
  50         0.08769257
  51        -0.00000000
  52         0.11988082
  53         1.38120703
  54         0.09388247
  55        -0.46956745
  56         0.00000000
  57        -0.05705406
  58        -0.65734843
  59        -0.04468084
  60         0.22347803
  61        -0.00000000
Sym=    22a  
Ene=     3.6948
Spin= Alpha
Occup=    0.00000
   1        -0.00000000
   2         0.00000000
   3         0.00000000
   4        -0.00000000
   5         0.00000000
   6        -0.00000000
   7         0.00000000
   8        -0.00000000
   9         0.00000000
  10        -0.00000000
  11         0.00000000
  12        -0.00000000
  13         0.00000000
  14        -0.00000000
  15         0.00000000
  16         0.00000000
  17         0.00000000
  18         0.00000000
  19         0.00000000
  20        -0.00000000
  21         0.00000000
  22         0.00000000
  23         0.00000000
  24         0.00000000
  25         0.00000000
  26        -0.00000000
  27        -0.00000000
  28         0.00000000
  29        -0.00000000
  30         0.00000000
  31         0.00000000
  32         0.00000000
  33        -0.00000000
  34         0.00000000
  35        -0.00000000
  36        -0.00000000
  37         0.00000000
  38         0.00000000
  39        -0.00000000
  40         0.00000000
  41         0.00000000
  42         0.00000000
  43        -0.00000000
  44         0.00000000
  45         0.00000000
  46         0.04885023
  47        -0.00000000
  48         0.00000000
  49        -0.00000000
  50        -0.00000000
  51        -0.27392178
  52         0.00000002
  53        -0.00000000
  54         0.00000000
  55         0.00000000
  56         1.46676916
  57        -0.00000001
  58         0.00000000
  59        -0.00000000
  60        -0.00000000
  61        -0.69806943
Sym=    23a  
Ene=     3.6948
Spin= Alpha
Occup=    0.00000
   1        -0.00000000
   2         0.00000000
   3        -0.00000000
   4         0.00000000
   5        -0.00000000
   6         0.00000000
   7        -0.00000000
   8         0.00000000
   9        -0.00000000
  10         0.00000000
  11        -0.00000000
  12         0.00000000
  13        -0.00000000
  14         0.00000000
  15         0.00000000
  16         0.00000000
  17         0.00000000
  18        -0.00000000
  19         0.00000000
  20        -0.00000000
  21         0.00000000
  22        -0.00000000
  23         0.00000000
  24         0.00000000
  25         0.00000000
  26        -0.00000000
  27         0.00000000
  28        -0.00000000
  29        -0.00000000
  30        -0.00000000
  31         0.00000000
  32         0.00000000
  33        -0.00000000
  34         0.00000000
  35        -0.00000000
  36        -0.00000000
  37         0.00000000
  38         0.00000000
  39        -0.00000000
  40         0.00000000
  41        -0.00000000
  42         0.04867090
  43        -0.00411294
  44         0.00060830
  45         0.00044934
  46        -0.00000000
  47        -0.27291622
  48         0.02306282
  49        -0.00341099
  50        -0.00251961
  51         0.00000000
  52         1.46138470
  53        -0.12349448
  54         0.01826483
  55         0.01349177
  56        -0.00000002
  57        -0.69550684
  58         0.05877389
  59        -0.00869266
  60        -0.00642105
  61         0.00000001
Sym=    24a  
Ene=     3.6998
Spin= Alpha
Occup=    0.00000
   1        -0.00000000
   2        -0.00000000
   3        -0.00000000
   4        -0.00000000
   5        -0.00000000
   6        -0.00000000
   7        -0.00000000
   8        -0.00000000
   9        -0.00000000
  10        -0.00000000
  11         0.00000000
  12         0.00000000
  13         0.00000000
  14        -0.00000000
  15         0.00000000
  16         0.00000000
  17        -0.00131252
  18         0.00000000
  19         0.00000000
  20         0.01186021
  21         0.00000000
  22         0.00000000
  23        -0.05879218
  24         0.00000000
  25         0.00000000
  26         0.22666064
  27         0.00000000
  28         0.00000000
  29        -0.80632728
  30         0.00000000
  31         0.00000000
  32         2.90007643
  33        -0.00000000
  34         0.00000000
  35        -2.83517965
  36        -0.00000000
  37         0.00000000
  38         1.40373043
  39        -0.00000000
  40         0.00000000
  41        -0.36341970
  42        -0.00000000
  43         0.00000000
  44         0.00000000
  45        -0.00000000
  46         0.00000000
  47        -0.00000000
  48        -0.00000000
  49        -0.00000000
  50         0.00000000
  51         0.00000000
  52        -0.00000000
  53         0.00000000
  54         0.00000000
  55        -0.00000000
  56        -0.00000000
  57        -0.00000000
  58        -0.00000000
  59        -0.00000000
  60        -0.00000000
  61         0.00000000
Sym=    25a  
Ene=     3.6998
Spin= Alpha
Occup=    0.00000
   1         0.00000000
   2         0.00000000
   3         0.00000000
   4         0.00000000
   5         0.00000000
   6         0.00000000
   7         0.00000000
   8         0.00000000
   9         0.00000000
  10         0.00000000
  11         0.00000000
  12         0.00000000
  13         0.00000000
  14        -0.00000000
  15         0.00000000
  16        -0.00131252
  17        -0.00000000
  18        -0.00000000
  19         0.01186021
  20         0.00000000
  21         0.00000000
  22        -0.05879218
  23        -0.00000000
  24         0.00000000
  25         0.22666064
  26        -0.00000000
  27        -0.00000000
  28        -0.80632728
  29         0.00000000
  30         0.00000000
  31         2.90007643
  32        -0.00000000
  33        -0.00000000
  34        -2.83517965
  35         0.00000000
  36         0.00000000
  37         1.40373043
  38        -0.00000000
  39        -0.00000000
  40        -0.36341970
  41         0.00000000
  42        -0.00000000
  43         0.00000000
  44         0.00000000
  45        -0.00000000
  46         0.00000000
  47         0.00000000
  48        -0.00000000
  49        -0.00000000
  50         0.00000000
  51        -0.00000000
  52        -0.00000000
  53        -0.00000000
  54         0.00000000
  55         0.00000000
  56        -0.00000000
  57         0.00000000
  58         0.00000000
  59        -0.00000000
  60        -0.00000000
  61         0.00000000
Sym=    26a  
Ene=     3.6998
Spin= Alpha
Occup=    0.00000
   1         0.00000000
   2         0.00000000
   3         0.00000000
   4         0.00000000
   5         0.00000000
   6         0.00000000
   7         0.00000000
   8         0.00000000
   9         0.00000000
  10         0.00000000
  11        -0.00000000
  12        -0.00000000
  13        -0.00000000
  14         0.00000000
  15        -0.00131252
  16        -0.00000000
  17        -0.00000000
  18         0.01186021
  19        -0.00000000
  20         0.00000000
  21        -0.05879218
  22        -0.00000000
  23        -0.00000000
  24         0.22666064
  25        -0.00000000
  26         0.00000000
  27        -0.80632728
  28        -0.00000000
  29        -0.00000000
  30         2.90007643
  31        -0.00000000
  32         0.00000000
  33        -2.83517965
  34        -0.00000000
  35        -0.00000000
  36         1.40373043
  37        -0.00000000
  38         0.00000000
  39        -0.36341970
  40        -0.00000000
  41        -0.00000000
  42         0.00000000
  43         0.00000000
  44        -0.00000000
  45         0.00000000
  46         0.00000000
  47         0.00000000
  48         0.00000000
  49         0.00000000
  50        -0.00000000
  51        -0.00000000
  52         0.00000000
  53        -0.00000000
  54        -0.00000000
  55         0.00000000
  56         0.00000000
  57         0.00000000
  58         0.00000000
  59         0.00000000
  60         0.00000000
  61        -0.00000000
Sym=    27a  
Ene=     4.0187
Spin= Alpha
Occup=    0.00000
   1        -0.00000312
   2         0.00003817
   3        -0.00027225
   4         0.00147538
   5        -0.00647874
   6         0.02693982
   7        -0.08830193
   8         0.34659705
   9        -0.82722867
  10         3.10425227
  11        -6.31493326
  12         5.86415372
  13        -2.70641805
  14         0.67223943
  15         0.00000000
  16         0.00000000
  17         0.00000000
  18         0.00000000
  19         0.00000000
  20        -0.00000000
  21         0.00000000
  22         0.00000000
  23         0.00000000
  24         0.00000000
  25         0.00000000
  26        -0.00000000
  27         0.00000000
  28         0.00000000
  29        -0.00000000
  30        -0.00000000
  31         0.00000000
  32         0.00000000
  33        -0.00000000
  34         0.00000000
  35         0.00000000
  36        -0.00000000
  37         0.00000000
  38        -0.00000000
  39        -0.00000000
  40         0.00000000
  41         0.00000000
  42        -0.00000000
  43         0.00000000
  44        -0.00000000
  45        -0.00000000
  46         0.00000000
  47         0.00000000
  48        -0.00000000
  49         0.00000000
  50         0.00000000
  51        -0.00000000
  52        -0.00000000
  53        -0.00000000
  54        -0.00000000
  55        -0.00000000
  56         0.00000000
  57         0.00000000
  58         0.00000000
  59         0.00000000
  60         0.00000000
  61        -0.00000000
Sym=    28a  
Ene=     4.7411
Spin= Alpha
Occup=    0.00000
   1        -0.00000000
   2        -0.00000000
   3        -0.00000000
   4        -0.00000000
   5        -0.00000000
   6        -0.00000000
   7        -0.00000000
   8        -0.00000000
   9        -0.00000000
  10         0.00000000
  11        -0.00000000
  12        -0.00000000
  13        -0.00000000
  14         0.00000000
  15        -0.00000000
  16        -0.00000000
  17         0.00365297
  18        -0.00000000
  19        -0.00000000
  20        -0.03355060
  21        -0.00000000
  22        -0.00000000
  23         0.17223192
  24        -0.00000000
  25        -0.00000000
  26        -0.71464487
  27        -0.00000000
  28        -0.00000000
  29         2.86764427
  30        -0.00000000
  31        -0.00000000
  32        -3.05078464
  33         0.00000000
  34        -0.00000000
  35         1.90124666
  36         0.00000000
  37        -0.00000000
  38        -0.82579696
  39         0.00000000
  40        -0.00000000
  41         0.21096474
  42         0.00000000
  43        -0.00000000
  44        -0.00000000
  45         0.00000000
  46        -0.00000000
  47         0.00000000
  48         0.00000000
  49         0.00000000
  50        -0.00000000
  51        -0.00000000
  52         0.00000000
  53         0.00000000
  54        -0.00000000
  55         0.00000000
  56         0.00000000
  57         0.00000000
  58         0.00000000
  59         0.00000000
  60         0.00000000
  61        -0.00000000
Sym=    29a  
Ene=     4.7411
Spin= Alpha
Occup=    0.00000
   1         0.00000000
   2         0.00000000
   3         0.00000000
   4         0.00000000
   5         0.00000000
   6         0.00000000
   7         0.00000000
   8         0.00000000
   9         0.00000000
  10         0.00000000
  11         0.00000000
  12         0.00000000
  13         0.00000000
  14        -0.00000000
  15         0.00000000
  16         0.00365297
  17        -0.00000000
  18         0.00000000
  19        -0.03355060
  20         0.00000000
  21         0.00000000
  22         0.17223192
  23        -0.00000000
  24         0.00000000
  25        -0.71464487
  26        -0.00000000
  27        -0.00000000
  28         2.86764427
  29         0.00000000
  30         0.00000000
  31        -3.05078464
  32        -0.00000000
  33        -0.00000000
  34         1.90124666
  35         0.00000000
  36        -0.00000000
  37        -0.82579696
  38        -0.00000000
  39        -0.00000000
  40         0.21096474
  41         0.00000000
  42        -0.00000000
  43         0.00000000
  44         0.00000000
  45        -0.00000000
  46         0.00000000
  47         0.00000000
  48        -0.00000000
  49        -0.00000000
  50         0.00000000
  51        -0.00000000
  52        -0.00000000
  53        -0.00000000
  54         0.00000000
  55         0.00000000
  56        -0.00000000
  57         0.00000000
  58         0.00000000
  59        -0.00000000
  60        -0.00000000
  61         0.00000000
Sym=    30a  
Ene=     4.7411
Spin= Alpha
Occup=    0.00000
   1         0.00000000
   2         0.00000000
   3         0.00000000
   4         0.00000000
   5         0.00000000
   6         0.00000000
   7         0.00000000
   8         0.00000000
   9         0.00000000
  10         0.00000000
  11        -0.00000000
  12        -0.00000000
  13        -0.00000000
  14         0.00000000
  15         0.00365297
  16         0.00000000
  17         0.00000000
  18        -0.03355060
  19         0.00000000
  20        -0.00000000
  21         0.17223192
  22         0.00000000
  23        -0.00000000
  24        -0.71464487
  25         0.00000000
  26         0.00000000
  27         2.86764427
  28         0.00000000
  29        -0.00000000
  30        -3.05078464
  31         0.00000000
  32         0.00000000
  33         1.90124666
  34         0.00000000
  35        -0.00000000
  36        -0.82579696
  37         0.00000000
  38         0.00000000
  39         0.21096474
  40         0.00000000
  41        -0.00000000
  42         0.00000000
  43         0.00000000
  44        -0.00000000
  45         0.00000000
  46         0.00000000
  47         0.00000000
  48         0.00000000
  49         0.00000000
  50        -0.00000000
  51        -0.00000000
  52         0.00000000
  53        -0.00000000
  54        -0.00000000
  55         0.00000000
  56         0.00000000
  57         0.00000000
  58         0.00000000
  59         0.00000000
  60         0.00000000
  61        -0.00000000
Sym=    31a  
Ene=     5.1102
Spin= Alpha
Occup=    0.00000
   1         0.00000000
   2        -0.00000000
   3         0.00000000
   4        -0.00000000
   5         0.00000000
   6        -0.00000000
   7         0.00000000
   8        -0.00000000
   9         0.00000000
  10        -0.00000000
  11         0.00000000
  12        -0.00000000
  13         0.00000000
  14        -0.00000000
  15         0.00000000
  16        -0.00000000
  17        -0.00000000
  18        -0.00000000
  19        -0.00000000
  20         0.00000000
  21         0.00000000
  22        -0.00000000
  23        -0.00000000
  24         0.00000000
  25         0.00000000
  26        -0.00000000
  27         0.00000000
  28        -0.00000000
  29         0.00000000
  30        -0.00000000
  31        -0.00000000
  32        -0.00000000
  33         0.00000000
  34        -0.00000000
  35         0.00000000
  36        -0.00000000
  37        -0.00000000
  38        -0.00000000
  39         0.00000000
  40        -0.00000000
  41         0.00000000
  42        -0.17531737
  43        -0.07668435
  44        -0.07896343
  45         0.04513103
  46        -0.00000006
  47         1.26162186
  48         0.55183726
  49         0.56823799
  50        -0.32477269
  51         0.00000040
  52        -0.83132537
  53        -0.36362426
  54        -0.37443125
  55         0.21400372
  56        -0.00000027
  57         0.28158600
  58         0.12316658
  59         0.12682712
  60        -0.07248721
  61         0.00000009
Sym=    32a  
Ene=     5.1102
Spin= Alpha
Occup=    0.00000
   1         0.00000000
   2        -0.00000000
   3         0.00000000
   4        -0.00000000
   5         0.00000000
   6        -0.00000000
   7         0.00000000
   8        -0.00000000
   9         0.00000000
  10        -0.00000000
  11         0.00000000
  12        -0.00000000
  13         0.00000000
  14        -0.00000000
  15        -0.00000000
  16        -0.00000000
  17         0.00000000
  18         0.00000000
  19         0.00000000
  20        -0.00000000
  21        -0.00000000
  22        -0.00000000
  23         0.00000000
  24         0.00000000
  25         0.00000000
  26         0.00000000
  27        -0.00000000
  28        -0.00000000
  29        -0.00000000
  30         0.00000000
  31        -0.00000000
  32         0.00000000
  33        -0.00000000
  34         0.00000000
  35        -0.00000000
  36         0.00000000
  37        -0.00000000
  38         0.00000000
  39         0.00000000
  40         0.00000000
  41        -0.00000000
  42         0.11843526
  43        -0.10445413
  44        -0.13015856
  45         0.05486235
  46         0.00000000
  47        -0.85228584
  48         0.75167460
  49         0.93664924
  50        -0.39480140
  51        -0.00000000
  52         0.56160000
  53        -0.49530385
  54        -0.61718990
  55         0.26014801
  56         0.00000000
  57        -0.19022480
  58         0.16776901
  59         0.20905417
  60        -0.08811717
  61        -0.00000000
Sym=    33a  
Ene=     5.1102
Spin= Alpha
Occup=    0.00000
   1        -0.00000000
   2         0.00000000
   3        -0.00000000
   4         0.00000000
   5        -0.00000000
   6         0.00000000
   7        -0.00000000
   8         0.00000000
   9        -0.00000000
  10         0.00000000
  11        -0.00000000
  12         0.00000000
  13        -0.00000000
  14         0.00000000
  15        -0.00000000
  16        -0.00000000
  17        -0.00000000
  18        -0.00000000
  19        -0.00000000
  20         0.00000000
  21        -0.00000000
  22        -0.00000000
  23        -0.00000000
  24        -0.00000000
  25        -0.00000000
  26         0.00000000
  27        -0.00000000
  28        -0.00000000
  29        -0.00000000
  30        -0.00000000
  31         0.00000000
  32         0.00000000
  33         0.00000000
  34        -0.00000000
  35        -0.00000000
  36         0.00000000
  37         0.00000000
  38         0.00000000
  39         0.00000000
  40        -0.00000000
  41        -0.00000000
  42         0.00000005
  43         0.00000002
  44         0.00000002
  45        -0.00000001
  46        -0.21186955
  47        -0.00000033
  48        -0.00000015
  49        -0.00000015
  50         0.00000009
  51         1.52465924
  52         0.00000022
  53         0.00000010
  54         0.00000010
  55        -0.00000006
  56        -1.00464960
  57        -0.00000007
  58        -0.00000003
  59        -0.00000003
  60         0.00000002
  61         0.34029428
Sym=    34a  
Ene=     5.1102
Spin= Alpha
Occup=    0.00000
   1        -0.00000000
   2         0.00000000
   3        -0.00000000
   4         0.00000000
   5        -0.00000000
   6         0.00000000
   7        -0.00000000
   8         0.00000000
   9        -0.00000000
  10         0.00000000
  11        -0.00000000
  12         0.00000000
  13        -0.00000000
  14         0.00000000
  15         0.00000000
  16        -0.00000000
  17        -0.00000000
  18         0.00000000
  19        -0.00000000
  20         0.00000000
  21         0.00000000
  22         0.00000000
  23        -0.00000000
  24         0.00000000
  25        -0.00000000
  26        -0.00000000
  27         0.00000000
  28         0.00000000
  29         0.00000000
  30        -0.00000000
  31         0.00000000
  32        -0.00000000
  33        -0.00000000
  34        -0.00000000
  35         0.00000000
  36         0.00000000
  37        -0.00000000
  38        -0.00000000
  39        -0.00000000
  40        -0.00000000
  41         0.00000000
  42        -0.01108423
  43         0.11505448
  44        -0.14538586
  45        -0.10193754
  46         0.00000000
  47         0.07976456
  48        -0.82795703
  49         1.04622819
  50         0.73356469
  51        -0.00000000
  52        -0.05255957
  53         0.54556892
  54        -0.68939518
  55        -0.48337061
  56         0.00000000
  57         0.01780294
  58        -0.18479476
  59         0.23351150
  60         0.16372699
  61        -0.00000000
Sym=    35a  
Ene=     5.1102
Spin= Alpha
Occup=    0.00000
   1         0.00000000
   2        -0.00000000
   3         0.00000000
   4        -0.00000000
   5         0.00000000
   6        -0.00000000
   7         0.00000000
   8        -0.00000000
   9         0.00000000
  10        -0.00000000
  11         0.00000000
  12        -0.00000000
  13         0.00000000
  14        -0.00000000
  15        -0.00000000
  16         0.00000000
  17         0.00000000
  18        -0.00000000
  19         0.00000000
  20        -0.00000000
  21        -0.00000000
  22        -0.00000000
  23         0.00000000
  24        -0.00000000
  25         0.00000000
  26         0.00000000
  27        -0.00000000
  28        -0.00000000
  29        -0.00000000
  30         0.00000000
  31        -0.00000000
  32         0.00000000
  33         0.00000000
  34         0.00000000
  35        -0.00000000
  36        -0.00000000
  37         0.00000000
  38         0.00000000
  39         0.00000000
  40         0.00000000
  41        -0.00000000
  42        -0.00165907
  43        -0.12190166
  44         0.02398297
  45        -0.17161222
  46        -0.00000000
  47         0.01193904
  48         0.87723081
  49        -0.17258669
  50         1.23495879
  51         0.00000000
  52        -0.00786704
  53        -0.57803708
  54         0.11372321
  55        -0.81375616
  56        -0.00000000
  57         0.00266472
  58         0.19579236
  59        -0.03852025
  60         0.27563497
  61         0.00000000
Sym=    36a  
Ene=     6.3226
Spin= Alpha
Occup=    0.00000
   1        -0.00001030
   2         0.00012573
   3        -0.00090166
   4         0.00483040
   5        -0.02208131
   6         0.08543828
   7        -0.34233919
   8         1.05957801
   9        -4.16377809
  10         7.45129964
  11        -6.29142400
  12         3.36750000
  13        -1.47466232
  14         0.34581117
  15         0.00000000
  16        -0.00000000
  17        -0.00000000
  18         0.00000000
  19        -0.00000000
  20         0.00000000
  21         0.00000000
  22         0.00000000
  23        -0.00000000
  24         0.00000000
  25        -0.00000000
  26        -0.00000000
  27         0.00000000
  28         0.00000000
  29         0.00000000
  30        -0.00000000
  31         0.00000000
  32        -0.00000000
  33        -0.00000000
  34        -0.00000000
  35         0.00000000
  36         0.00000000
  37        -0.00000000
  38        -0.00000000
  39        -0.00000000
  40        -0.00000000
  41         0.00000000
  42         0.00000000
  43        -0.00000000
  44         0.00000000
  45         0.00000000
  46        -0.00000000
  47        -0.00000000
  48         0.00000000
  49        -0.00000000
  50        -0.00000000
  51        -0.00000000
  52         0.00000000
  53        -0.00000000
  54         0.00000000
  55         0.00000000
  56        -0.00000000
  57        -0.00000000
  58         0.00000000
  59        -0.00000000
  60        -0.00000000
  61         0.00000000
Sym=    37a  
Ene=     7.3443
Spin= Alpha
Occup=    0.00000
   1         0.00000000
   2         0.00000000
   3         0.00000000
   4         0.00000000
   5         0.00000000
   6         0.00000000
   7         0.00000000
   8         0.00000000
   9         0.00000000
  10        -0.00000000
  11         0.00000000
  12         0.00000000
  13         0.00000000
  14        -0.00000000
  15         0.00000000
  16         0.00000000
  17        -0.01060309
  18         0.00000000
  19         0.00000000
  20         0.10127846
  21         0.00000000
  22         0.00000000
  23        -0.56339860
  24         0.00000000
  25         0.00000000
  26         2.67993504
  27         0.00000000
  28         0.00000000
  29        -2.96408760
  30         0.00000000
  31         0.00000000
  32         2.01107460
  33        -0.00000000
  34         0.00000000
  35        -1.10320054
  36        -0.00000000
  37         0.00000000
  38         0.47313604
  39        -0.00000000
  40         0.00000000
  41        -0.12253614
  42        -0.00000000
  43         0.00000000
  44         0.00000000
  45        -0.00000000
  46         0.00000000
  47        -0.00000000
  48        -0.00000000
  49        -0.00000000
  50         0.00000000
  51         0.00000000
  52        -0.00000000
  53        -0.00000000
  54         0.00000000
  55        -0.00000000
  56        -0.00000000
  57        -0.00000000
  58        -0.00000000
  59        -0.00000000
  60        -0.00000000
  61         0.00000000
Sym=    38a  
Ene=     7.3443
Spin= Alpha
Occup=    0.00000
   1         0.00000000
   2         0.00000000
   3         0.00000000
   4         0.00000000
   5         0.00000000
   6         0.00000000
   7         0.00000000
   8         0.00000000
   9         0.00000000
  10         0.00000000
  11         0.00000000
  12         0.00000000
  13         0.00000000
  14        -0.00000000
  15         0.00000000
  16        -0.01060309
  17        -0.00000000
  18        -0.00000000
  19         0.10127846
  20         0.00000000
  21         0.00000000
  22        -0.56339860
  23        -0.00000000
  24        -0.00000000
  25         2.67993504
  26        -0.00000000
  27         0.00000000
  28        -2.96408760
  29         0.00000000
  30         0.00000000
  31         2.01107460
  32        -0.00000000
  33        -0.00000000
  34        -1.10320054
  35         0.00000000
  36        -0.00000000
  37         0.47313604
  38        -0.00000000
  39         0.00000000
  40        -0.12253614
  41         0.00000000
  42        -0.00000000
  43         0.00000000
  44         0.00000000
  45        -0.00000000
  46         0.00000000
  47         0.00000000
  48        -0.00000000
  49        -0.00000000
  50         0.00000000
  51        -0.00000000
  52        -0.00000000
  53        -0.00000000
  54         0.00000000
  55         0.00000000
  56        -0.00000000
  57         0.00000000
  58         0.00000000
  59        -0.00000000
  60        -0.00000000
  61         0.00000000
Sym=    39a  
Ene=     7.3443
Spin= Alpha
Occup=    0.00000
   1         0.00000000
   2         0.00000000
   3         0.00000000
   4         0.00000000
   5         0.00000000
   6         0.00000000
   7         0.00000000
   8         0.00000000
   9         0.00000000
  10         0.00000000
  11        -0.00000000
  12        -0.00000000
  13        -0.00000000
  14         0.00000000
  15        -0.01060309
  16        -0.00000000
  17         0.00000000
  18         0.10127846
  19        -0.00000000
  20         0.00000000
  21        -0.56339860
  22        -0.00000000
  23        -0.00000000
  24         2.67993504
  25        -0.00000000
  26         0.00000000
  27        -2.96408760
  28        -0.00000000
  29        -0.00000000
  30         2.01107460
  31        -0.00000000
  32         0.00000000
  33        -1.10320054
  34        -0.00000000
  35        -0.00000000
  36         0.47313604
  37        -0.00000000
  38         0.00000000
  39        -0.12253614
  40        -0.00000000
  41        -0.00000000
  42         0.00000000
  43         0.00000000
  44        -0.00000000
  45         0.00000000
  46         0.00000000
  47         0.00000000
  48         0.00000000
  49         0.00000000
  50        -0.00000000
  51        -0.00000000
  52         0.00000000
  53        -0.00000000
  54        -0.00000000
  55         0.00000000
  56         0.00000000
  57         0.00000000
  58         0.00000000
  59         0.00000000
  60         0.00000000
  61        -0.00000000
Sym=    40a  
Ene=     9.3895
Spin= Alpha
Occup=    0.00000
   1        -0.00000000
   2         0.00000000
   3        -0.00000000
   4         0.00000000
   5        -0.00000000
   6         0.00000000
   7        -0.00000000
   8         0.00000000
   9        -0.00000000
  10         0.00000000
  11        -0.00000000
  12         0.00000000
  13        -0.00000000
  14         0.00000000
  15         0.00000000
  16         0.00000000
  17         0.00000000
  18         0.00000000
  19         0.00000000
  20        -0.00000000
  21         0.00000000
  22         0.00000000
  23         0.00000000
  24         0.00000000
  25        -0.00000000
  26        -0.00000000
  27        -0.00000000
  28         0.00000000
  29         0.00000000
  30        -0.00000000
  31        -0.00000000
  32        -0.00000000
  33         0.00000000
  34         0.00000000
  35         0.00000000
  36        -0.00000000
  37         0.00000000
  38        -0.00000000
  39        -0.00000000
  40        -0.00000000
  41         0.00000000
  42         1.32606184
  43         0.34345567
  44        -0.08226313
  45         0.07930729
  46        -0.00000000
  47        -0.99353008
  48        -0.25732853
  49         0.06163430
  50        -0.05941968
  51         0.00000000
  52         0.46223203
  53         0.11972007
  54        -0.02867487
  55         0.02764454
  56        -0.00000000
  57        -0.15206036
  58        -0.03938428
  59         0.00943317
  60        -0.00909422
  61         0.00000000
Sym=    41a  
Ene=     9.3895
Spin= Alpha
Occup=    0.00000
   1        -0.00000000
   2         0.00000000
   3        -0.00000000
   4         0.00000000
   5        -0.00000000
   6         0.00000000
   7        -0.00000000
   8         0.00000000
   9        -0.00000000
  10         0.00000000
  11        -0.00000000
  12         0.00000000
  13        -0.00000000
  14         0.00000000
  15         0.00000000
  16        -0.00000000
  17        -0.00000000
  18         0.00000000
  19        -0.00000000
  20         0.00000000
  21        -0.00000000
  22        -0.00000000
  23        -0.00000000
  24         0.00000000
  25        -0.00000000
  26        -0.00000000
  27         0.00000000
  28        -0.00000000
  29         0.00000000
  30        -0.00000000
  31        -0.00000000
  32        -0.00000000
  33         0.00000000
  34        -0.00000000
  35         0.00000000
  36        -0.00000000
  37         0.00000000
  38        -0.00000000
  39        -0.00000000
  40        -0.00000000
  41         0.00000000
  42         0.00000000
  43         0.00000000
  44        -0.00000000
  45         0.00000000
  46         1.37457581
  47        -0.00000000
  48        -0.00000000
  49         0.00000000
  50        -0.00000000
  51        -1.02987838
  52         0.00000000
  53         0.00000000
  54        -0.00000000
  55         0.00000000
  56         0.47914279
  57        -0.00000000
  58        -0.00000000
  59         0.00000000
  60        -0.00000000
  61        -0.15762349
Sym=    42a  
Ene=     9.3895
Spin= Alpha
Occup=    0.00000
   1         0.00000000
   2        -0.00000000
   3         0.00000000
   4        -0.00000000
   5         0.00000000
   6         0.00000000
   7        -0.00000000
   8         0.00000000
   9        -0.00000000
  10        -0.00000000
  11         0.00000000
  12        -0.00000000
  13         0.00000000
  14        -0.00000000
  15         0.00000000
  16        -0.00000000
  17        -0.00000000
  18        -0.00000000
  19        -0.00000000
  20         0.00000000
  21         0.00000000
  22        -0.00000000
  23        -0.00000000
  24         0.00000000
  25        -0.00000000
  26        -0.00000000
  27         0.00000000
  28        -0.00000000
  29         0.00000000
  30        -0.00000000
  31        -0.00000000
  32        -0.00000000
  33        -0.00000000
  34        -0.00000000
  35         0.00000000
  36        -0.00000000
  37        -0.00000000
  38        -0.00000000
  39        -0.00000000
  40        -0.00000000
  41         0.00000000
  42        -0.23554117
  43         0.58732039
  44        -0.18141291
  45         1.20669927
  46         0.00000000
  47         0.17647536
  48        -0.44004017
  49         0.13592065
  50        -0.90409963
  51        -0.00000000
  52        -0.08210377
  53         0.20472522
  54        -0.06323601
  55         0.42062522
  56         0.00000000
  57         0.02700966
  58        -0.06734841
  59         0.02080273
  60        -0.13837298
  61        -0.00000000
Sym=    43a  
Ene=     9.3895
Spin= Alpha
Occup=    0.00000
   1         0.00000000
   2         0.00000000
   3        -0.00000000
   4         0.00000000
   5        -0.00000000
   6         0.00000000
   7        -0.00000000
   8         0.00000000
   9        -0.00000000
  10         0.00000000
  11         0.00000000
  12        -0.00000000
  13         0.00000000
  14        -0.00000000
  15        -0.00000000
  16         0.00000000
  17         0.00000000
  18        -0.00000000
  19        -0.00000000
  20        -0.00000000
  21        -0.00000000
  22         0.00000000
  23         0.00000000
  24        -0.00000000
  25        -0.00000000
  26         0.00000000
  27        -0.00000000
  28         0.00000000
  29        -0.00000000
  30         0.00000000
  31        -0.00000000
  32         0.00000000
  33         0.00000000
  34         0.00000000
  35        -0.00000000
  36         0.00000000
  37        -0.00000000
  38         0.00000000
  39         0.00000000
  40         0.00000000
  41        -0.00000000
  42        -0.27358354
  43         1.17801530
  44        -0.11230293
  45        -0.64364487
  46         0.00000000
  47         0.20497798
  48        -0.88260864
  49         0.08414113
  50         0.48224036
  51        -0.00000000
  52        -0.09536439
  53         0.41062671
  54        -0.03914600
  55        -0.22435852
  56         0.00000000
  57         0.03137200
  58        -0.13508377
  59         0.01287785
  60         0.07380717
  61        -0.00000000
Sym=    44a  
Ene=     9.3895
Spin= Alpha
Occup=    0.00000
   1         0.00000000
   2         0.00000000
   3        -0.00000000
   4         0.00000000
   5        -0.00000000
   6         0.00000000
   7         0.00000000
   8        -0.00000000
   9         0.00000000
  10        -0.00000000
  11         0.00000000
  12        -0.00000000
  13         0.00000000
  14        -0.00000000
  15        -0.00000000
  16        -0.00000000
  17        -0.00000000
  18        -0.00000000
  19        -0.00000000
  20         0.00000000
  21        -0.00000000
  22        -0.00000000
  23        -0.00000000
  24        -0.00000000
  25        -0.00000000
  26         0.00000000
  27        -0.00000000
  28        -0.00000000
  29        -0.00000000
  30         0.00000000
  31        -0.00000000
  32         0.00000000
  33         0.00000000
  34        -0.00000000
  35        -0.00000000
  36         0.00000000
  37        -0.00000000
  38         0.00000000
  39         0.00000000
  40        -0.00000000
  41        -0.00000000
  42         0.02628816
  43         0.19705731
  44         1.35542202
  45         0.11299189
  46        -0.00000000
  47        -0.01969598
  48        -0.14764195
  49        -1.01552771
  50        -0.08465732
  51         0.00000000
  52         0.00916340
  53         0.06868925
  54         0.47246626
  55         0.03938615
  56        -0.00000000
  57        -0.00301448
  58        -0.02259669
  59        -0.15542711
  60        -0.01295685
  61         0.00000000
Sym=    45a  
Ene=    12.8950
Spin= Alpha
Occup=    0.00000
   1        -0.00003185
   2         0.00038932
   3        -0.00278745
   4         0.01514717
   5        -0.06845075
   6         0.28950065
   7        -1.09439890
   8         4.64618344
   9        -7.42976907
  10         6.06851866
  11        -3.65876548
  12         1.90093739
  13        -0.75218323
  14         0.18540203
  15         0.00000000
  16         0.00000000
  17         0.00000000
  18        -0.00000000
  19         0.00000000
  20        -0.00000000
  21         0.00000000
  22         0.00000000
  23         0.00000000
  24        -0.00000000
  25         0.00000000
  26         0.00000000
  27         0.00000000
  28         0.00000000
  29        -0.00000000
  30        -0.00000000
  31         0.00000000
  32         0.00000000
  33         0.00000000
  34         0.00000000
  35        -0.00000000
  36        -0.00000000
  37         0.00000000
  38         0.00000000
  39         0.00000000
  40        -0.00000000
  41        -0.00000000
  42         0.00000000
  43        -0.00000000
  44        -0.00000000
  45         0.00000000
  46        -0.00000000
  47        -0.00000000
  48         0.00000000
  49         0.00000000
  50        -0.00000000
  51         0.00000000
  52         0.00000000
  53        -0.00000000
  54        -0.00000000
  55         0.00000000
  56         0.00000000
  57        -0.00000000
  58         0.00000000
  59         0.00000000
  60        -0.00000000
  61        -0.00000000
Sym=    46a  
Ene=    14.1670
Spin= Alpha
Occup=    0.00000
   1         0.00000000
   2         0.00000000
   3         0.00000000
   4         0.00000000
   5         0.00000000
   6         0.00000000
   7         0.00000000
   8         0.00000000
   9         0.00000000
  10         0.00000000
  11         0.00000000
  12         0.00000000
  13         0.00000000
  14        -0.00000000
  15        -0.00000000
  16         0.00000000
  17         0.03357444
  18        -0.00000000
  19        -0.00000000
  20        -0.35409953
  21        -0.00000000
  22         0.00000000
  23         2.34081123
  24        -0.00000000
  25         0.00000000
  26        -2.65216097
  27        -0.00000000
  28        -0.00000000
  29         1.88060307
  30         0.00000000
  31         0.00000000
  32        -1.13288768
  33         0.00000000
  34        -0.00000000
  35         0.61595319
  36         0.00000000
  37         0.00000000
  38        -0.26753668
  39         0.00000000
  40         0.00000000
  41         0.07014175
  42        -0.00000000
  43         0.00000000
  44         0.00000000
  45        -0.00000000
  46         0.00000000
  47         0.00000000
  48        -0.00000000
  49        -0.00000000
  50         0.00000000
  51        -0.00000000
  52        -0.00000000
  53        -0.00000000
  54         0.00000000
  55         0.00000000
  56        -0.00000000
  57         0.00000000
  58         0.00000000
  59        -0.00000000
  60        -0.00000000
  61         0.00000000
Sym=    47a  
Ene=    14.1670
Spin= Alpha
Occup=    0.00000
   1         0.00000000
   2         0.00000000
   3         0.00000000
   4         0.00000000
   5         0.00000000
   6         0.00000000
   7         0.00000000
   8         0.00000000
   9         0.00000000
  10         0.00000000
  11         0.00000000
  12         0.00000000
  13         0.00000000
  14        -0.00000000
  15         0.00000000
  16         0.03357444
  17        -0.00000000
  18         0.00000000
  19        -0.35409953
  20         0.00000000
  21        -0.00000000
  22         2.34081123
  23        -0.00000000
  24         0.00000000
  25        -2.65216097
  26        -0.00000000
  27        -0.00000000
  28         1.88060307
  29         0.00000000
  30         0.00000000
  31        -1.13288768
  32        -0.00000000
  33        -0.00000000
  34         0.61595319
  35         0.00000000
  36        -0.00000000
  37        -0.26753668
  38        -0.00000000
  39        -0.00000000
  40         0.07014175
  41         0.00000000
  42        -0.00000000
  43         0.00000000
  44         0.00000000
  45        -0.00000000
  46         0.00000000
  47         0.00000000
  48        -0.00000000
  49        -0.00000000
  50         0.00000000
  51        -0.00000000
  52        -0.00000000
  53        -0.00000000
  54         0.00000000
  55         0.00000000
  56        -0.00000000
  57         0.00000000
  58         0.00000000
  59        -0.00000000
  60        -0.00000000
  61         0.00000000
Sym=    48a  
Ene=    14.1670
Spin= Alpha
Occup=    0.00000
   1         0.00000000
   2         0.00000000
   3         0.00000000
   4         0.00000000
   5         0.00000000
   6         0.00000000
   7         0.00000000
   8         0.00000000
   9         0.00000000
  10         0.00000000
  11        -0.00000000
  12        -0.00000000
  13        -0.00000000
  14         0.00000000
  15         0.03357444
  16        -0.00000000
  17         0.00000000
  18        -0.35409953
  19        -0.00000000
  20         0.00000000
  21         2.34081123
  22        -0.00000000
  23        -0.00000000
  24        -2.65216097
  25        -0.00000000
  26         0.00000000
  27         1.88060307
  28        -0.00000000
  29        -0.00000000
  30        -1.13288768
  31        -0.00000000
  32         0.00000000
  33         0.61595319
  34        -0.00000000
  35        -0.00000000
  36        -0.26753668
  37        -0.00000000
  38         0.00000000
  39         0.07014175
  40        -0.00000000
  41        -0.00000000
  42         0.00000000
  43         0.00000000
  44        -0.00000000
  45         0.00000000
  46         0.00000000
  47         0.00000000
  48         0.00000000
  49         0.00000000
  50        -0.00000000
  51        -0.00000000
  52         0.00000000
  53        -0.00000000
  54        -0.00000000
  55         0.00000000
  56         0.00000000
  57         0.00000000
  58         0.00000000
  59         0.00000000
  60         0.00000000
  61        -0.00000000
Sym=    49a  
Ene=    30.3760
Spin= Alpha
Occup=    0.00000
   1         0.00009357
   2        -0.00114438
   3         0.00824462
   4        -0.04510733
   5         0.21349017
   6        -0.93446360
   7         4.27801673
   8        -6.47859321
   9         5.35148331
  10        -3.53864339
  11         2.02325812
  12        -0.98627780
  13         0.43241800
  14        -0.10355326
  15        -0.00000000
  16        -0.00000000
  17        -0.00000000
  18         0.00000000
  19        -0.00000000
  20         0.00000000
  21        -0.00000000
  22        -0.00000000
  23        -0.00000000
  24         0.00000000
  25        -0.00000000
  26        -0.00000000
  27         0.00000000
  28        -0.00000000
  29         0.00000000
  30        -0.00000000
  31        -0.00000000
  32        -0.00000000
  33         0.00000000
  34        -0.00000000
  35         0.00000000
  36         0.00000000
  37        -0.00000000
  38        -0.00000000
  39        -0.00000000
  40        -0.00000000
  41         0.00000000
  42         0.00000000
  43         0.00000000
  44        -0.00000000
  45        -0.00000000
  46        -0.00000000
  47        -0.00000000
  48         0.00000000
  49         0.00000000
  50        -0.00000000
  51         0.00000000
  52         0.00000000
  53        -0.00000000
  54        -0.00000000
  55         0.00000000
  56         0.00000000
  57        -0.00000000
  58         0.00000000
  59         0.00000000
  60        -0.00000000
  61        -0.00000000
Sym=    50a  
Ene=    34.0240
Spin= Alpha
Occup=    0.00000
   1        -0.00000000
   2        -0.00000000
   3        -0.00000000
   4        -0.00000000
   5        -0.00000000
   6        -0.00000000
   7        -0.00000000
   8        -0.00000000
   9        -0.00000000
  10        -0.00000000
  11        -0.00000000
  12        -0.00000000
  13        -0.00000000
  14         0.00000000
  15        -0.00000000
  16        -0.00000000
  17        -0.13266498
  18         0.00000000
  19        -0.00000000
  20         1.84676789
  21        -0.00000000
  22        -0.00000000
  23        -2.08590579
  24        -0.00000000
  25        -0.00000000
  26         1.54451447
  27         0.00000000
  28        -0.00000000
  29        -0.99148580
  30        -0.00000000
  31        -0.00000000
  32         0.59665165
  33         0.00000000
  34        -0.00000000
  35        -0.32928619
  36        -0.00000000
  37        -0.00000000
  38         0.14465487
  39         0.00000000
  40        -0.00000000
  41        -0.03819989
  42         0.00000000
  43        -0.00000000
  44        -0.00000000
  45         0.00000000
  46        -0.00000000
  47        -0.00000000
  48         0.00000000
  49         0.00000000
  50        -0.00000000
  51         0.00000000
  52         0.00000000
  53         0.00000000
  54        -0.00000000
  55         0.00000000
  56         0.00000000
  57        -0.00000000
  58        -0.00000000
  59         0.00000000
  60         0.00000000
  61        -0.00000000
Sym=    51a  
Ene=    34.0240
Spin= Alpha
Occup=    0.00000
   1         0.00000000
   2         0.00000000
   3         0.00000000
   4         0.00000000
   5         0.00000000
   6         0.00000000
   7         0.00000000
   8         0.00000000
   9         0.00000000
  10         0.00000000
  11         0.00000000
  12         0.00000000
  13         0.00000000
  14        -0.00000000
  15         0.00000000
  16        -0.13266498
  17        -0.00000000
  18         0.00000000
  19         1.84676789
  20         0.00000000
  21         0.00000000
  22        -2.08590579
  23        -0.00000000
  24        -0.00000000
  25         1.54451447
  26        -0.00000000
  27         0.00000000
  28        -0.99148580
  29         0.00000000
  30         0.00000000
  31         0.59665165
  32        -0.00000000
  33        -0.00000000
  34        -0.32928619
  35         0.00000000
  36         0.00000000
  37         0.14465487
  38        -0.00000000
  39        -0.00000000
  40        -0.03819989
  41         0.00000000
  42        -0.00000000
  43         0.00000000
  44         0.00000000
  45        -0.00000000
  46         0.00000000
  47         0.00000000
  48        -0.00000000
  49        -0.00000000
  50         0.00000000
  51        -0.00000000
  52        -0.00000000
  53        -0.00000000
  54         0.00000000
  55         0.00000000
  56        -0.00000000
  57         0.00000000
  58         0.00000000
  59        -0.00000000
  60        -0.00000000
  61         0.00000000
Sym=    52a  
Ene=    34.0240
Spin= Alpha
Occup=    0.00000
   1         0.00000000
   2         0.00000000
   3         0.00000000
   4         0.00000000
   5         0.00000000
   6         0.00000000
   7         0.00000000
   8         0.00000000
   9         0.00000000
  10         0.00000000
  11        -0.00000000
  12        -0.00000000
  13        -0.00000000
  14         0.00000000
  15        -0.13266498
  16         0.00000000
  17         0.00000000
  18         1.84676789
  19         0.00000000
  20        -0.00000000
  21        -2.08590579
  22         0.00000000
  23        -0.00000000
  24         1.54451447
  25         0.00000000
  26         0.00000000
  27        -0.99148580
  28         0.00000000
  29        -0.00000000
  30         0.59665165
  31         0.00000000
  32         0.00000000
  33        -0.32928619
  34         0.00000000
  35        -0.00000000
  36         0.14465487
  37         0.00000000
  38         0.00000000
  39        -0.03819989
  40         0.00000000
  41        -0.00000000
  42         0.00000000
  43         0.00000000
  44        -0.00000000
  45         0.00000000
  46         0.00000000
  47         0.00000000
  48         0.00000000
  49         0.00000000
  50        -0.00000000
  51        -0.00000000
  52         0.00000000
  53        -0.00000000
  54        -0.00000000
  55         0.00000000
  56         0.00000000
  57         0.00000000
  58         0.00000000
  59         0.00000000
  60         0.00000000
  61        -0.00000000
