[MOLDEN FORMAT]
[N_ATOMS]
                    1
[ATOMS] (AU)
BE          1      4           0.00000000      0.00000000      0.00000000
[5D]
[CHARGE] (MULLIKEN)
  -6.2172489379008766E-014
[GTO] (AU)
   1
   s   1
  0.227191134E+05  0.100000000E+01
   s   1
  0.338580737E+04  0.100000000E+01
   s   1
  0.763391802E+03  0.100000000E+01
   s   1
  0.212587442E+03  0.100000000E+01
   s   1
  0.674923619E+02  0.100000000E+01
   s   1
  0.234656657E+02  0.100000000E+01
   s   1
  0.875625849E+01  0.100000000E+01
   s   1
  0.348196336E+01  0.100000000E+01
   s   1
  0.145795258E+01  0.100000000E+01
   s   1
  0.611049460E+00  0.100000000E+01
   s   1
  0.258716744E+00  0.100000000E+01
   s   1
  0.104592704E+00  0.100000000E+01
   s   1
  0.425967080E-01  0.100000000E+01
   s   1
  0.149083960E-01  0.100000000E+01
   p   1
  0.337101840E+02  0.100000000E+01
   p   1
  0.805764950E+01  0.100000000E+01
   p   1
  0.283647140E+01  0.100000000E+01
   p   1
  0.109996570E+01  0.100000000E+01
   p   1
  0.443396400E+00  0.100000000E+01
   p   1
  0.182226400E+00  0.100000000E+01
   p   1
  0.757241000E-01  0.100000000E+01
   p   1
  0.316854000E-01  0.100000000E+01
   p   1
  0.110899000E-01  0.100000000E+01
   d   1
  0.140000000E+01  0.100000000E+01
   d   1
  0.490000000E+00  0.100000000E+01
   d   1
  0.171500000E+00  0.100000000E+01
   d   1
  0.600250000E-01  0.100000000E+01
 
[MO]
Sym=     1a  
Ene=     0.0000
Spin= Alpha
Occup=    1.99687
   1         0.00005316
   2         0.00041690
   3         0.00221986
   4         0.00953599
   5         0.03474317
   6         0.10582693
   7         0.24534703
   8         0.38636237
   9         0.31291665
  10         0.06593005
  11        -0.00470206
  12        -0.00592137
  13        -0.00290382
  14         0.00009495
  15         0.00000000
  16         0.00000000
  17         0.00000000
  18        -0.00000000
  19        -0.00000000
  20        -0.00000000
  21         0.00000000
  22         0.00000000
  23         0.00000000
  24         0.00000000
  25         0.00000000
  26         0.00000000
  27        -0.00000000
  28        -0.00000000
  29        -0.00000000
  30         0.00000000
  31        -0.00000000
  32        -0.00000000
  33        -0.00000000
  34        -0.00000000
  35        -0.00000000
  36        -0.00000000
  37        -0.00000000
  38        -0.00000000
  39         0.00000000
  40         0.00000000
  41         0.00000000
  42        -0.00000000
  43        -0.00000000
  44         0.00000000
  45        -0.00000000
  46        -0.00000000
  47        -0.00000000
  48        -0.00000000
  49         0.00000000
  50         0.00000000
  51         0.00000000
  52         0.00000000
  53        -0.00000000
  54         0.00000000
  55         0.00000000
  56        -0.00000000
  57        -0.00000000
  58         0.00000000
  59        -0.00000000
  60         0.00000000
  61         0.00000000
Sym=     2a  
Ene=     0.0000
Spin= Alpha
Occup=    1.80733
   1        -0.00000934
   2        -0.00007331
   3        -0.00039078
   4        -0.00168622
   5        -0.00621918
   6        -0.01957699
   7        -0.04879392
   8        -0.09282018
   9        -0.13026974
  10        -0.06188583
  11         0.28852731
  12         0.62420791
  13         0.23317545
  14        -0.00186429
  15         0.00000000
  16         0.00000000
  17         0.00000000
  18         0.00000000
  19         0.00000000
  20         0.00000000
  21        -0.00000000
  22        -0.00000000
  23        -0.00000000
  24        -0.00000000
  25        -0.00000000
  26        -0.00000000
  27        -0.00000000
  28        -0.00000000
  29        -0.00000001
  30         0.00000000
  31        -0.00000000
  32        -0.00000001
  33         0.00000000
  34         0.00000000
  35         0.00000002
  36         0.00000000
  37         0.00000000
  38         0.00000001
  39        -0.00000000
  40        -0.00000000
  41        -0.00000000
  42        -0.00000000
  43        -0.00000000
  44         0.00000000
  45         0.00000000
  46        -0.00000000
  47         0.00000000
  48        -0.00000000
  49         0.00000000
  50        -0.00000000
  51        -0.00000000
  52         0.00000000
  53         0.00000000
  54        -0.00000000
  55         0.00000000
  56         0.00000000
  57         0.00000000
  58        -0.00000000
  59         0.00000000
  60        -0.00000000
  61        -0.00000000
Sym=     3a  
Ene=     0.0000
Spin= Alpha
Occup=    0.00063
   1         0.00000000
   2         0.00000000
   3         0.00000000
   4         0.00000001
   5         0.00000001
   6         0.00000014
   7         0.00000007
   8        -0.00000019
   9         0.00000000
  10        -0.00000006
  11         0.00000018
  12        -0.00000004
  13        -0.00000006
  14        -0.00000001
  15        -0.04218172
  16         0.00100949
  17         0.06722820
  18        -0.30964171
  19         0.00741035
  20         0.49349944
  21        -0.24040224
  22         0.00575331
  23         0.38314728
  24        -0.00878430
  25         0.00021023
  26         0.01400017
  27         0.02266126
  28        -0.00054233
  29        -0.03611690
  30         0.05625501
  31        -0.00134630
  32        -0.08965791
  33         0.02719703
  34        -0.00065088
  35        -0.04334587
  36         0.00127206
  37        -0.00003044
  38        -0.00202756
  39         0.00000141
  40        -0.00000003
  41        -0.00000211
  42         0.00000000
  43        -0.00000000
  44         0.00000000
  45        -0.00000000
  46        -0.00000000
  47        -0.00000000
  48         0.00000000
  49        -0.00000000
  50         0.00000000
  51         0.00000000
  52         0.00000000
  53        -0.00000000
  54         0.00000000
  55         0.00000000
  56        -0.00000000
  57         0.00000000
  58        -0.00000000
  59        -0.00000000
  60        -0.00000000
  61         0.00000000
Sym=     4a  
Ene=     0.0000
Spin= Alpha
Occup=    0.00063
   1         0.00000000
   2         0.00000000
   3         0.00000000
   4        -0.00000000
   5         0.00000001
   6        -0.00000001
   7         0.00000009
   8        -0.00000014
   9         0.00000012
  10        -0.00000008
  11         0.00000006
  12        -0.00000003
  13         0.00000001
  14        -0.00000000
  15         0.00039109
  16         0.07936565
  17        -0.00094636
  18         0.00287089
  19         0.58259604
  20        -0.00694691
  21         0.00222892
  22         0.45232075
  23        -0.00539350
  24         0.00008144
  25         0.01652776
  26        -0.00019708
  27        -0.00021011
  28        -0.04263748
  29         0.00050841
  30        -0.00052158
  31        -0.10584483
  32         0.00126210
  33        -0.00025216
  34        -0.05117154
  35         0.00061017
  36        -0.00001179
  37        -0.00239345
  38         0.00002854
  39        -0.00000001
  40        -0.00000267
  41         0.00000003
  42        -0.00000000
  43        -0.00000000
  44         0.00000000
  45        -0.00000000
  46         0.00000000
  47         0.00000000
  48         0.00000000
  49        -0.00000000
  50         0.00000000
  51        -0.00000000
  52        -0.00000000
  53        -0.00000000
  54         0.00000000
  55        -0.00000000
  56        -0.00000000
  57         0.00000000
  58         0.00000000
  59         0.00000000
  60         0.00000000
  61         0.00000000
Sym=     5a  
Ene=     0.0000
Spin= Alpha
Occup=    0.00063
   1         0.00000000
   2         0.00000000
   3         0.00000000
   4        -0.00000000
   5         0.00000006
   6        -0.00000006
   7         0.00000061
   8        -0.00000111
   9         0.00000104
  10        -0.00000085
  11         0.00000058
  12        -0.00000024
  13         0.00000006
  14        -0.00000003
  15         0.06723469
  16         0.00017168
  17         0.04218321
  18         0.49354678
  19         0.00126024
  20         0.30965249
  21         0.38318392
  22         0.00097844
  23         0.24041055
  24         0.01400149
  25         0.00003575
  26         0.00878456
  27        -0.03612036
  28        -0.00009223
  29        -0.02266197
  30        -0.08966657
  31        -0.00022896
  32        -0.05625705
  33        -0.04334998
  34        -0.00011069
  35        -0.02719782
  36        -0.00202762
  37        -0.00000518
  38        -0.00127225
  39        -0.00000227
  40        -0.00000001
  41        -0.00000133
  42         0.00000000
  43         0.00000000
  44         0.00000000
  45         0.00000000
  46         0.00000000
  47        -0.00000000
  48        -0.00000000
  49        -0.00000000
  50        -0.00000000
  51        -0.00000000
  52         0.00000000
  53         0.00000000
  54         0.00000000
  55        -0.00000000
  56         0.00000000
  57         0.00000000
  58         0.00000000
  59        -0.00000000
  60         0.00000000
  61        -0.00000000
Sym=     6a  
Ene=     0.0000
Spin= Alpha
Occup=    0.00125
   1         0.00008471
   2         0.00069163
   3         0.00352628
   4         0.01695420
   5         0.06822180
   6         0.34049797
   7         0.74108058
   8        -0.19047521
   9        -0.79364895
  10        -0.18228047
  11         0.07930655
  12         0.19344701
  13         0.07045091
  14        -0.00022725
  15        -0.00000000
  16        -0.00000000
  17        -0.00000001
  18        -0.00000002
  19        -0.00000001
  20        -0.00000008
  21        -0.00000002
  22        -0.00000001
  23        -0.00000009
  24        -0.00000000
  25        -0.00000000
  26        -0.00000001
  27         0.00000000
  28        -0.00000000
  29        -0.00000003
  30         0.00000001
  31        -0.00000000
  32        -0.00000005
  33         0.00000001
  34        -0.00000000
  35        -0.00000002
  36         0.00000000
  37         0.00000000
  38         0.00000000
  39        -0.00000000
  40        -0.00000000
  41        -0.00000000
  42        -0.00000000
  43        -0.00000000
  44         0.00000000
  45        -0.00000000
  46        -0.00000000
  47         0.00000000
  48         0.00000000
  49        -0.00000000
  50        -0.00000000
  51         0.00000000
  52         0.00000000
  53        -0.00000000
  54         0.00000000
  55        -0.00000000
  56        -0.00000000
  57         0.00000000
  58        -0.00000000
  59         0.00000000
  60        -0.00000000
  61        -0.00000000
Sym=     7a  
Ene=     0.0000
Spin= Alpha
Occup=    0.06422
   1         0.00000000
   2        -0.00000000
   3         0.00000000
   4         0.00000000
   5         0.00000000
   6        -0.00000004
   7         0.00000017
   8        -0.00000028
   9         0.00000058
  10        -0.00000052
  11        -0.00000010
  12        -0.00000014
  13         0.00000043
  14        -0.00000001
  15        -0.00013309
  16         0.00000255
  17         0.00113926
  18        -0.00084429
  19         0.00001620
  20         0.00722709
  21        -0.00240605
  22         0.00004616
  23         0.02059608
  24        -0.00581870
  25         0.00011162
  26         0.04980839
  27        -0.02601945
  28         0.00049915
  29         0.22272767
  30        -0.06263283
  31         0.00120154
  32         0.53614120
  33        -0.03478674
  34         0.00066734
  35         0.29777652
  36        -0.00068520
  37         0.00001314
  38         0.00586532
  39        -0.00023983
  40         0.00000460
  41         0.00205300
  42         0.00000000
  43         0.00000000
  44         0.00000000
  45        -0.00000000
  46        -0.00000000
  47         0.00000000
  48        -0.00000000
  49         0.00000000
  50         0.00000000
  51        -0.00000000
  52         0.00000000
  53        -0.00000000
  54         0.00000000
  55        -0.00000000
  56        -0.00000000
  57        -0.00000000
  58         0.00000000
  59         0.00000000
  60        -0.00000000
  61         0.00000000
Sym=     8a  
Ene=     0.0000
Spin= Alpha
Occup=    0.06422
   1         0.00000000
   2        -0.00000000
   3         0.00000000
   4        -0.00000000
   5         0.00000001
   6        -0.00000002
   7         0.00000005
   8        -0.00000007
   9         0.00000008
  10        -0.00000006
  11        -0.00000001
  12        -0.00000002
  13         0.00000004
  14        -0.00000000
  15        -0.00004911
  16         0.00114593
  17        -0.00000831
  18        -0.00031152
  19         0.00726939
  20        -0.00005268
  21        -0.00088779
  22         0.02071666
  23        -0.00015014
  24        -0.00214699
  25         0.05009995
  26        -0.00036309
  27        -0.00960065
  28         0.22403146
  29        -0.00162364
  30        -0.02311030
  31         0.53927939
  32        -0.00390836
  33        -0.01283563
  34         0.29951963
  35        -0.00217073
  36        -0.00025282
  37         0.00589952
  38        -0.00004276
  39        -0.00008850
  40         0.00206507
  41        -0.00001497
  42        -0.00000000
  43        -0.00000000
  44         0.00000000
  45        -0.00000000
  46         0.00000000
  47        -0.00000000
  48        -0.00000000
  49         0.00000000
  50        -0.00000000
  51         0.00000000
  52        -0.00000000
  53        -0.00000000
  54         0.00000000
  55        -0.00000000
  56         0.00000000
  57         0.00000000
  58         0.00000000
  59        -0.00000000
  60        -0.00000000
  61         0.00000000
Sym=     9a  
Ene=     0.0000
Spin= Alpha
Occup=    0.06422
   1         0.00000000
   2        -0.00000000
   3         0.00000000
   4        -0.00000001
   5         0.00000003
   6        -0.00000014
   7         0.00000038
   8        -0.00000070
   9         0.00000086
  10        -0.00000067
  11         0.00000033
  12        -0.00000022
  13         0.00000016
  14        -0.00000002
  15         0.00113820
  16         0.00004974
  17         0.00013286
  18         0.00722039
  19         0.00031553
  20         0.00084278
  21         0.02057701
  22         0.00089922
  23         0.00240184
  24         0.04976224
  25         0.00217461
  26         0.00580843
  27         0.22252128
  28         0.00972418
  29         0.02597346
  30         0.53564415
  31         0.02340764
  32         0.06252239
  33         0.29750059
  34         0.01300077
  35         0.03472535
  36         0.00585975
  37         0.00025607
  38         0.00068397
  39         0.00205116
  40         0.00008964
  41         0.00023942
  42        -0.00000000
  43         0.00000000
  44         0.00000000
  45         0.00000000
  46         0.00000000
  47         0.00000000
  48         0.00000000
  49         0.00000000
  50         0.00000000
  51         0.00000000
  52         0.00000000
  53         0.00000000
  54         0.00000000
  55         0.00000000
  56         0.00000000
  57        -0.00000000
  58        -0.00000000
  59        -0.00000000
  60         0.00000000
  61         0.00000000
Sym=    10a  
Ene=     0.0275
Spin= Alpha
Occup=    0.00000
   1         0.00000000
   2         0.00000000
   3         0.00000000
   4         0.00000000
   5         0.00000000
   6         0.00000000
   7         0.00000000
   8        -0.00000000
   9         0.00000000
  10        -0.00000005
  11         0.00000007
  12        -0.00000011
  13         0.00000046
  14        -0.00000056
  15        -0.00001926
  16         0.00000034
  17         0.00013484
  18        -0.00004545
  19         0.00000080
  20         0.00031823
  21        -0.00087139
  22         0.00001527
  23         0.00610145
  24         0.00098292
  25        -0.00001722
  26        -0.00688236
  27        -0.00374673
  28         0.00006565
  29         0.02623435
  30         0.01708252
  31        -0.00029933
  32        -0.11961079
  33        -0.02745618
  34         0.00048111
  35         0.19224654
  36         0.09428096
  37        -0.00165207
  38        -0.66014941
  39        -0.19156642
  40         0.00335679
  41         1.34133608
  42         0.00000000
  43        -0.00000000
  44         0.00000000
  45        -0.00000000
  46        -0.00000000
  47        -0.00000000
  48         0.00000000
  49        -0.00000000
  50         0.00000000
  51         0.00000000
  52         0.00000000
  53        -0.00000000
  54         0.00000000
  55        -0.00000000
  56        -0.00000000
  57        -0.00000000
  58         0.00000000
  59        -0.00000000
  60         0.00000000
  61         0.00000000
Sym=    11a  
Ene=     0.0275
Spin= Alpha
Occup=    0.00000
   1        -0.00000000
   2        -0.00000000
   3        -0.00000000
   4        -0.00000000
   5        -0.00000000
   6        -0.00000000
   7        -0.00000000
   8         0.00000000
   9        -0.00000000
  10         0.00000000
  11        -0.00000001
  12         0.00000001
  13        -0.00000004
  14         0.00000004
  15         0.00000149
  16        -0.00013620
  17         0.00000055
  18         0.00000350
  19        -0.00032145
  20         0.00000131
  21         0.00006720
  22        -0.00616300
  23         0.00002502
  24        -0.00007580
  25         0.00695169
  26        -0.00002822
  27         0.00028894
  28        -0.02649889
  29         0.00010758
  30        -0.00131735
  31         0.12081667
  32        -0.00049049
  33         0.00211733
  34        -0.19418466
  35         0.00078835
  36        -0.00727063
  37         0.66680496
  38        -0.00270710
  39         0.01477294
  40        -1.35485907
  41         0.00550047
  42         0.00000000
  43         0.00000000
  44        -0.00000000
  45         0.00000000
  46        -0.00000000
  47        -0.00000000
  48        -0.00000000
  49         0.00000000
  50        -0.00000000
  51         0.00000000
  52         0.00000000
  53         0.00000000
  54        -0.00000000
  55         0.00000000
  56        -0.00000000
  57        -0.00000000
  58        -0.00000000
  59         0.00000000
  60        -0.00000000
  61         0.00000000
Sym=    12a  
Ene=     0.0275
Spin= Alpha
Occup=    0.00000
   1         0.00000000
   2         0.00000000
   3         0.00000000
   4        -0.00000000
   5         0.00000000
   6        -0.00000000
   7         0.00000000
   8        -0.00000000
   9         0.00000000
  10        -0.00000001
  11         0.00000001
  12        -0.00000002
  13         0.00000009
  14        -0.00000011
  15         0.00013483
  16         0.00000155
  17         0.00001925
  18         0.00031822
  19         0.00000365
  20         0.00004544
  21         0.00610113
  22         0.00007006
  23         0.00087117
  24        -0.00688190
  25        -0.00007903
  26        -0.00098266
  27         0.02623290
  28         0.00030124
  29         0.00374577
  30        -0.11960391
  31        -0.00137346
  32        -0.01707811
  33         0.19223543
  34         0.00220751
  35         0.02744909
  36        -0.66011157
  37        -0.00758031
  38        -0.09425660
  39         1.34125899
  40         0.01540218
  41         0.19151687
  42         0.00000000
  43         0.00000000
  44         0.00000000
  45         0.00000000
  46         0.00000000
  47        -0.00000000
  48        -0.00000000
  49        -0.00000000
  50        -0.00000000
  51        -0.00000000
  52         0.00000000
  53         0.00000000
  54         0.00000000
  55         0.00000000
  56         0.00000000
  57        -0.00000000
  58        -0.00000000
  59        -0.00000000
  60        -0.00000000
  61        -0.00000000
Sym=    13a  
Ene=     0.0387
Spin= Alpha
Occup=    0.00000
   1         0.00000064
   2         0.00000160
   3         0.00003503
   4         0.00000555
   5         0.00071326
   6        -0.00012698
   7         0.01047469
   8        -0.00783676
   9         0.03448061
  10        -0.17763639
  11         0.28129168
  12        -0.65008660
  13         1.83859278
  14        -1.93650410
  15         0.00000000
  16        -0.00000000
  17        -0.00000000
  18         0.00000000
  19        -0.00000000
  20        -0.00000000
  21        -0.00000000
  22        -0.00000000
  23        -0.00000001
  24         0.00000000
  25         0.00000000
  26        -0.00000001
  27        -0.00000000
  28        -0.00000000
  29        -0.00000002
  30         0.00000000
  31         0.00000001
  32         0.00000008
  33        -0.00000000
  34        -0.00000001
  35        -0.00000007
  36         0.00000002
  37         0.00000004
  38         0.00000043
  39        -0.00000003
  40        -0.00000004
  41        -0.00000052
  42        -0.00000000
  43        -0.00000000
  44         0.00000000
  45         0.00000000
  46        -0.00000000
  47         0.00000000
  48        -0.00000000
  49         0.00000000
  50        -0.00000000
  51        -0.00000000
  52        -0.00000000
  53         0.00000000
  54        -0.00000000
  55         0.00000000
  56         0.00000000
  57         0.00000000
  58        -0.00000000
  59         0.00000000
  60        -0.00000000
  61        -0.00000000
Sym=    14a  
Ene=     0.1352
Spin= Alpha
Occup=    0.00000
   1         0.00000000
   2        -0.00000000
   3         0.00000000
   4        -0.00000000
   5         0.00000000
   6        -0.00000000
   7         0.00000000
   8        -0.00000000
   9         0.00000000
  10         0.00000000
  11        -0.00000003
  12         0.00000009
  13        -0.00000012
  14         0.00000006
  15         0.00000579
  16         0.00000010
  17         0.00000035
  18         0.00597433
  19         0.00010775
  20         0.00036023
  21         0.00072132
  22         0.00001301
  23         0.00004350
  24         0.05850697
  25         0.00105523
  26         0.00352779
  27        -0.16818470
  28        -0.00303338
  29        -0.01014102
  30         0.33762002
  31         0.00608932
  32         0.02035745
  33        -1.60271495
  34        -0.02890661
  35        -0.09663884
  36         2.56131997
  37         0.04619604
  38         0.15443983
  39        -1.01194864
  40        -0.01825153
  41        -0.06101743
  42         0.00000000
  43         0.00000000
  44         0.00000000
  45         0.00000000
  46         0.00000000
  47        -0.00000000
  48        -0.00000000
  49        -0.00000000
  50        -0.00000000
  51        -0.00000000
  52         0.00000000
  53         0.00000000
  54         0.00000000
  55         0.00000000
  56         0.00000000
  57         0.00000000
  58        -0.00000001
  59        -0.00000000
  60        -0.00000000
  61        -0.00000000
Sym=    15a  
Ene=     0.1352
Spin= Alpha
Occup=    0.00000
   1         0.00000000
   2         0.00000000
   3         0.00000000
   4         0.00000000
   5         0.00000000
   6         0.00000000
   7         0.00000000
   8         0.00000000
   9        -0.00000000
  10         0.00000000
  11        -0.00000002
  12         0.00000007
  13        -0.00000008
  14         0.00000004
  15        -0.00000010
  16         0.00000580
  17        -0.00000001
  18        -0.00010721
  19         0.00598518
  20        -0.00001218
  21        -0.00001294
  22         0.00072263
  23        -0.00000147
  24        -0.00104995
  25         0.05861321
  26        -0.00011933
  27         0.00301821
  28        -0.16849008
  29         0.00034302
  30        -0.00605886
  31         0.33823306
  32        -0.00068859
  33         0.02876200
  34        -1.60562510
  35         0.00326882
  36        -0.04596493
  37         2.56597071
  38        -0.00522395
  39         0.01816023
  40        -1.01378610
  41         0.00206392
  42        -0.00000000
  43        -0.00000000
  44         0.00000000
  45        -0.00000000
  46         0.00000000
  47         0.00000000
  48         0.00000000
  49        -0.00000000
  50         0.00000000
  51        -0.00000000
  52        -0.00000000
  53        -0.00000000
  54         0.00000000
  55        -0.00000000
  56         0.00000000
  57         0.00000000
  58         0.00000000
  59        -0.00000001
  60         0.00000000
  61        -0.00000000
Sym=    16a  
Ene=     0.1352
Spin= Alpha
Occup=    0.00000
   1        -0.00000000
   2        -0.00000000
   3        -0.00000000
   4        -0.00000000
   5        -0.00000000
   6        -0.00000000
   7        -0.00000000
   8        -0.00000002
   9         0.00000005
  10        -0.00000006
  11         0.00000023
  12        -0.00000079
  13         0.00000101
  14        -0.00000048
  15         0.00000035
  16        -0.00000001
  17        -0.00000579
  18         0.00036039
  19        -0.00000571
  20        -0.00597529
  21         0.00004351
  22        -0.00000069
  23        -0.00072146
  24         0.00352937
  25        -0.00005591
  26        -0.05851641
  27        -0.01014556
  28         0.00016071
  29         0.16821169
  30         0.02036658
  31        -0.00032262
  32        -0.33767433
  33        -0.09668205
  34         0.00153153
  35         1.60297260
  36         0.15450882
  37        -0.00244756
  38        -2.56173143
  39        -0.06104471
  40         0.00096700
  41         1.01211129
  42        -0.00000000
  43        -0.00000000
  44        -0.00000000
  45         0.00000000
  46         0.00000000
  47         0.00000000
  48         0.00000000
  49         0.00000000
  50        -0.00000000
  51        -0.00000000
  52        -0.00000000
  53        -0.00000000
  54        -0.00000000
  55         0.00000000
  56         0.00000000
  57         0.00000001
  58         0.00000000
  59         0.00000000
  60        -0.00000000
  61        -0.00000000
Sym=    17a  
Ene=     0.1841
Spin= Alpha
Occup=    0.00000
   1         0.00000000
   2         0.00000000
   3         0.00000000
   4         0.00000000
   5         0.00000000
   6         0.00000000
   7         0.00000000
   8        -0.00000000
   9         0.00000000
  10        -0.00000000
  11         0.00000000
  12        -0.00000001
  13         0.00000001
  14        -0.00000000
  15        -0.00000000
  16         0.00000000
  17        -0.00000000
  18         0.00000000
  19        -0.00000000
  20         0.00000000
  21        -0.00000000
  22         0.00000000
  23        -0.00000000
  24         0.00000000
  25        -0.00000000
  26         0.00000000
  27        -0.00000000
  28         0.00000000
  29        -0.00000000
  30         0.00000000
  31        -0.00000000
  32         0.00000000
  33        -0.00000001
  34         0.00000001
  35        -0.00000000
  36         0.00000001
  37        -0.00000001
  38         0.00000000
  39        -0.00000000
  40         0.00000000
  41        -0.00000000
  42        -0.00013593
  43        -0.00165330
  44         0.00079838
  45        -0.01067988
  46         0.00061627
  47         0.00086021
  48         0.01046290
  49        -0.00505251
  50         0.06758749
  51        -0.00390008
  52        -0.00263247
  53        -0.03201939
  54         0.01546208
  55        -0.20683649
  56         0.01193533
  57         0.01391880
  58         0.16929788
  59        -0.08175351
  60         1.09361784
  61        -0.06310629
Sym=    18a  
Ene=     0.1841
Spin= Alpha
Occup=    0.00000
   1         0.00000000
   2         0.00000000
   3         0.00000000
   4         0.00000000
   5         0.00000000
   6         0.00000000
   7         0.00000000
   8        -0.00000000
   9         0.00000000
  10        -0.00000000
  11         0.00000000
  12        -0.00000000
  13         0.00000000
  14        -0.00000000
  15        -0.00000000
  16        -0.00000000
  17         0.00000000
  18         0.00000000
  19         0.00000000
  20         0.00000000
  21        -0.00000000
  22        -0.00000000
  23        -0.00000000
  24         0.00000000
  25         0.00000000
  26         0.00000000
  27        -0.00000000
  28        -0.00000000
  29        -0.00000000
  30         0.00000000
  31         0.00000000
  32         0.00000000
  33        -0.00000000
  34        -0.00000001
  35        -0.00000000
  36         0.00000001
  37         0.00000001
  38         0.00000000
  39        -0.00000000
  40        -0.00000000
  41        -0.00000000
  42        -0.00018484
  43        -0.00070987
  44        -0.00295475
  45        -0.00070848
  46        -0.01039511
  47         0.00116973
  48         0.00449241
  49         0.01869912
  50         0.00448361
  51         0.06578533
  52        -0.00357969
  53        -0.01374801
  54        -0.05722449
  55        -0.01372108
  56        -0.20132139
  57         0.01892711
  58         0.07269059
  59         0.30256618
  60         0.07254820
  61         1.06445753
Sym=    19a  
Ene=     0.1841
Spin= Alpha
Occup=    0.00000
   1         0.00000000
   2         0.00000000
   3         0.00000000
   4         0.00000000
   5         0.00000000
   6         0.00000000
   7         0.00000000
   8         0.00000000
   9         0.00000000
  10        -0.00000000
  11         0.00000000
  12        -0.00000002
  13         0.00000002
  14        -0.00000001
  15        -0.00000000
  16        -0.00000000
  17        -0.00000000
  18         0.00000000
  19         0.00000000
  20         0.00000000
  21        -0.00000000
  22        -0.00000000
  23        -0.00000000
  24         0.00000000
  25         0.00000000
  26         0.00000000
  27        -0.00000000
  28        -0.00000000
  29        -0.00000000
  30         0.00000001
  31         0.00000000
  32         0.00000000
  33        -0.00000002
  34        -0.00000000
  35        -0.00000001
  36         0.00000003
  37         0.00000000
  38         0.00000002
  39        -0.00000001
  40        -0.00000000
  41        -0.00000001
  42        -0.00376684
  43        -0.00999968
  44        -0.00064849
  45         0.00159510
  46         0.00082546
  47         0.02383838
  48         0.06328285
  49         0.00410397
  50        -0.01009457
  51        -0.00522392
  52        -0.07295206
  53        -0.19366310
  54        -0.01255928
  55         0.03089219
  56         0.01598664
  57         0.38572342
  58         1.02396543
  59         0.06640535
  60        -0.16333795
  61        -0.08452702
Sym=    20a  
Ene=     0.1841
Spin= Alpha
Occup=    0.00000
   1        -0.00000000
   2        -0.00000000
   3        -0.00000000
   4         0.00000000
   5        -0.00000000
   6         0.00000000
   7        -0.00000000
   8         0.00000000
   9        -0.00000000
  10         0.00000000
  11        -0.00000000
  12         0.00000000
  13        -0.00000000
  14         0.00000000
  15        -0.00000000
  16         0.00000000
  17        -0.00000000
  18         0.00000000
  19        -0.00000000
  20        -0.00000000
  21        -0.00000000
  22         0.00000000
  23        -0.00000000
  24         0.00000000
  25        -0.00000000
  26        -0.00000000
  27        -0.00000000
  28         0.00000000
  29         0.00000000
  30         0.00000000
  31        -0.00000001
  32        -0.00000000
  33        -0.00000000
  34         0.00000002
  35         0.00000000
  36         0.00000000
  37        -0.00000003
  38        -0.00000000
  39        -0.00000000
  40         0.00000001
  41         0.00000000
  42        -0.00078178
  43        -0.00051136
  44         0.01038143
  45         0.00069498
  46        -0.00294941
  47         0.00494751
  48         0.00323615
  49        -0.06569879
  50        -0.00439820
  51         0.01866531
  52        -0.01514076
  53        -0.00990353
  54         0.20105655
  55         0.01345970
  56        -0.05712104
  57         0.08005456
  58         0.05236349
  59        -1.06305722
  60        -0.07116621
  61         0.30201919
Sym=    21a  
Ene=     0.1841
Spin= Alpha
Occup=    0.00000
   1         0.00000000
   2         0.00000000
   3         0.00000000
   4         0.00000000
   5         0.00000000
   6         0.00000000
   7         0.00000000
   8        -0.00000000
   9         0.00000001
  10        -0.00000001
  11         0.00000003
  12        -0.00000008
  13         0.00000010
  14        -0.00000004
  15        -0.00000000
  16         0.00000000
  17         0.00000000
  18         0.00000000
  19         0.00000000
  20        -0.00000000
  21        -0.00000000
  22         0.00000000
  23         0.00000000
  24         0.00000000
  25         0.00000000
  26        -0.00000000
  27        -0.00000000
  28        -0.00000000
  29         0.00000000
  30         0.00000000
  31         0.00000000
  32        -0.00000001
  33        -0.00000001
  34        -0.00000000
  35         0.00000002
  36         0.00000001
  37         0.00000000
  38        -0.00000003
  39        -0.00000000
  40        -0.00000000
  41         0.00000001
  42         0.01014771
  43        -0.00378636
  44         0.00051594
  45         0.00048968
  46        -0.00010190
  47        -0.06421966
  48         0.02396192
  49        -0.00326515
  50        -0.00309897
  51         0.00064487
  52         0.19653001
  53        -0.07333014
  54         0.00999227
  55         0.00948370
  56        -0.00197348
  57        -1.03912380
  58         0.38772245
  59        -0.05283267
  60        -0.05014367
  61         0.01043446
Sym=    22a  
Ene=     0.2555
Spin= Alpha
Occup=    0.00000
   1         0.00000079
   2         0.00002273
   3        -0.00000464
   4         0.00069184
   5        -0.00059822
   6         0.01162085
   7        -0.00776642
   8         0.11600720
   9        -0.28726380
  10         0.46495682
  11        -1.77924729
  12         4.46308444
  13        -4.43880010
  14         1.40396816
  15         0.00000000
  16         0.00000000
  17        -0.00000000
  18         0.00000000
  19        -0.00000000
  20        -0.00000001
  21         0.00000000
  22        -0.00000000
  23        -0.00000001
  24        -0.00000000
  25        -0.00000000
  26        -0.00000005
  27         0.00000001
  28         0.00000001
  29         0.00000008
  30        -0.00000001
  31        -0.00000002
  32        -0.00000029
  33         0.00000005
  34         0.00000009
  35         0.00000100
  36        -0.00000004
  37        -0.00000007
  38        -0.00000082
  39         0.00000001
  40         0.00000002
  41         0.00000025
  42         0.00000000
  43        -0.00000000
  44         0.00000000
  45        -0.00000000
  46        -0.00000000
  47        -0.00000000
  48         0.00000000
  49        -0.00000000
  50         0.00000000
  51         0.00000000
  52         0.00000000
  53        -0.00000000
  54         0.00000000
  55        -0.00000000
  56        -0.00000000
  57        -0.00000002
  58         0.00000001
  59        -0.00000000
  60         0.00000000
  61         0.00000000
Sym=    23a  
Ene=     0.5115
Spin= Alpha
Occup=    0.00000
   1        -0.00000000
   2         0.00000000
   3        -0.00000000
   4         0.00000000
   5        -0.00000000
   6         0.00000000
   7        -0.00000002
   8         0.00000004
   9        -0.00000007
  10         0.00000018
  11        -0.00000044
  12         0.00000067
  13        -0.00000049
  14         0.00000012
  15        -0.00177274
  16        -0.00001491
  17        -0.00082857
  18        -0.00101733
  19        -0.00000855
  20        -0.00047550
  21        -0.08138911
  22        -0.00068437
  23        -0.03804094
  24         0.12351843
  25         0.00103863
  26         0.05773202
  27        -0.51185986
  28        -0.00430406
  29        -0.23924124
  30         2.31085397
  31         0.01943122
  32         1.08008382
  33        -3.21196145
  34        -0.02700833
  35        -1.50125776
  36         1.72600249
  37         0.01451339
  38         0.80672649
  39        -0.45841316
  40        -0.00385465
  41        -0.21426039
  42         0.00000000
  43         0.00000000
  44         0.00000000
  45         0.00000000
  46         0.00000000
  47        -0.00000000
  48        -0.00000000
  49        -0.00000000
  50        -0.00000000
  51        -0.00000000
  52         0.00000001
  53         0.00000002
  54         0.00000000
  55         0.00000000
  56         0.00000000
  57        -0.00000000
  58        -0.00000001
  59        -0.00000000
  60        -0.00000000
  61        -0.00000000
Sym=    24a  
Ene=     0.5115
Spin= Alpha
Occup=    0.00000
   1        -0.00000000
   2         0.00000000
   3        -0.00000000
   4         0.00000000
   5        -0.00000000
   6         0.00000000
   7        -0.00000000
   8         0.00000001
   9        -0.00000001
  10         0.00000003
  11        -0.00000007
  12         0.00000011
  13        -0.00000008
  14         0.00000002
  15         0.00000572
  16        -0.00195673
  17         0.00002297
  18         0.00000328
  19        -0.00112292
  20         0.00001318
  21         0.00026254
  22        -0.08983646
  23         0.00105450
  24        -0.00039843
  25         0.13633835
  26        -0.00160034
  27         0.00165110
  28        -0.56498560
  29         0.00663180
  30        -0.00745411
  31         2.55069655
  32        -0.02994006
  33         0.01036081
  34        -3.54532957
  35         0.04161506
  36        -0.00556756
  37         1.90514354
  38        -0.02236256
  39         0.00147870
  40        -0.50599165
  41         0.00593933
  42        -0.00000000
  43         0.00000000
  44         0.00000000
  45        -0.00000000
  46         0.00000000
  47         0.00000000
  48        -0.00000000
  49        -0.00000000
  50         0.00000000
  51        -0.00000000
  52        -0.00000000
  53        -0.00000000
  54         0.00000002
  55        -0.00000000
  56         0.00000000
  57         0.00000000
  58         0.00000000
  59        -0.00000001
  60         0.00000000
  61        -0.00000000
Sym=    25a  
Ene=     0.5115
Spin= Alpha
Occup=    0.00000
   1         0.00000000
   2        -0.00000000
   3         0.00000000
   4        -0.00000000
   5         0.00000000
   6        -0.00000000
   7         0.00000002
   8        -0.00000004
   9         0.00000009
  10        -0.00000033
  11         0.00000086
  12        -0.00000130
  13         0.00000095
  14        -0.00000022
  15        -0.00082868
  16         0.00001839
  17         0.00177265
  18        -0.00047556
  19         0.00001055
  20         0.00101729
  21        -0.03804620
  22         0.00084411
  23         0.08138518
  24         0.05773996
  25        -0.00128105
  26        -0.12351240
  27        -0.23927429
  28         0.00530867
  29         0.51183509
  30         1.08023295
  31        -0.02396662
  32        -2.31074185
  33        -1.50146502
  34         0.03331230
  35         3.21180533
  36         0.80683791
  37        -0.01790094
  38        -1.72591836
  39        -0.21429000
  40         0.00475435
  41         0.45839068
  42        -0.00000000
  43         0.00000000
  44        -0.00000000
  45         0.00000000
  46        -0.00000000
  47         0.00000000
  48        -0.00000000
  49        -0.00000000
  50        -0.00000000
  51         0.00000000
  52        -0.00000002
  53         0.00000001
  54        -0.00000000
  55         0.00000000
  56         0.00000000
  57         0.00000001
  58        -0.00000000
  59         0.00000000
  60        -0.00000000
  61        -0.00000000
Sym=    26a  
Ene=     0.6030
Spin= Alpha
Occup=    0.00000
   1         0.00000000
   2         0.00000000
   3         0.00000000
   4         0.00000000
   5         0.00000000
   6         0.00000000
   7         0.00000000
   8         0.00000000
   9        -0.00000000
  10         0.00000000
  11        -0.00000000
  12         0.00000000
  13        -0.00000000
  14         0.00000000
  15         0.00000000
  16         0.00000000
  17         0.00000000
  18         0.00000000
  19         0.00000000
  20         0.00000000
  21         0.00000000
  22         0.00000000
  23         0.00000000
  24        -0.00000000
  25        -0.00000000
  26        -0.00000000
  27         0.00000000
  28         0.00000000
  29         0.00000000
  30        -0.00000001
  31        -0.00000001
  32        -0.00000000
  33         0.00000001
  34         0.00000001
  35         0.00000000
  36        -0.00000001
  37        -0.00000001
  38        -0.00000000
  39         0.00000000
  40         0.00000000
  41         0.00000000
  42        -0.00082836
  43         0.00825074
  44         0.01265509
  45         0.02597613
  46         0.03826967
  47         0.00271957
  48        -0.02708790
  49        -0.04154778
  50        -0.08528195
  51        -0.12564272
  52        -0.02373455
  53         0.23640463
  54         0.36260053
  55         0.74428232
  56         1.09652346
  57         0.01236254
  58        -0.12313531
  59        -0.18886655
  60        -0.38767190
  61        -0.57114259
Sym=    27a  
Ene=     0.6030
Spin= Alpha
Occup=    0.00000
   1         0.00000000
   2         0.00000000
   3         0.00000000
   4         0.00000000
   5         0.00000000
   6         0.00000000
   7         0.00000000
   8         0.00000000
   9        -0.00000000
  10         0.00000000
  11        -0.00000000
  12         0.00000000
  13        -0.00000000
  14         0.00000000
  15         0.00000000
  16        -0.00000000
  17         0.00000000
  18         0.00000000
  19        -0.00000000
  20         0.00000000
  21         0.00000000
  22        -0.00000000
  23         0.00000000
  24        -0.00000000
  25         0.00000000
  26        -0.00000000
  27         0.00000000
  28        -0.00000000
  29         0.00000000
  30        -0.00000001
  31         0.00000001
  32        -0.00000000
  33         0.00000002
  34        -0.00000001
  35         0.00000000
  36        -0.00000001
  37         0.00000001
  38        -0.00000000
  39         0.00000000
  40        -0.00000000
  41         0.00000000
  42         0.00233051
  43         0.01372443
  44        -0.00446622
  45         0.03772743
  46        -0.02703965
  47        -0.00765127
  48        -0.04505851
  49         0.01466300
  50        -0.12386248
  51         0.08877355
  52         0.06677507
  53         0.39323979
  54        -0.12796861
  55         1.08098673
  56        -0.77475465
  57        -0.03478091
  58        -0.20482553
  59         0.06665459
  60        -0.56305003
  61         0.40354392
Sym=    28a  
Ene=     0.6030
Spin= Alpha
Occup=    0.00000
   1         0.00000000
   2         0.00000000
   3         0.00000000
   4         0.00000000
   5         0.00000000
   6         0.00000000
   7         0.00000000
   8         0.00000000
   9         0.00000000
  10         0.00000000
  11        -0.00000000
  12         0.00000000
  13        -0.00000000
  14         0.00000000
  15         0.00000000
  16        -0.00000000
  17         0.00000000
  18         0.00000000
  19        -0.00000000
  20         0.00000000
  21         0.00000000
  22        -0.00000000
  23         0.00000000
  24        -0.00000000
  25         0.00000000
  26        -0.00000000
  27         0.00000001
  28        -0.00000000
  29         0.00000001
  30        -0.00000003
  31         0.00000000
  32        -0.00000003
  33         0.00000004
  34        -0.00000000
  35         0.00000003
  36        -0.00000002
  37         0.00000000
  38        -0.00000002
  39         0.00000001
  40        -0.00000000
  41         0.00000000
  42         0.02275841
  43         0.04034167
  44        -0.00186061
  45        -0.01462588
  46         0.00233798
  47        -0.07471788
  48        -0.13244525
  49         0.00610855
  50         0.04801806
  51        -0.00767579
  52         0.65208637
  53         1.15589130
  54        -0.05331121
  55        -0.41906869
  56         0.06698900
  57        -0.33965010
  58        -0.60206532
  59         0.02776804
  60         0.21827894
  61        -0.03489234
Sym=    29a  
Ene=     0.6030
Spin= Alpha
Occup=    0.00000
   1         0.00000000
   2         0.00000000
   3         0.00000000
   4         0.00000000
   5         0.00000000
   6         0.00000000
   7        -0.00000000
   8         0.00000000
   9        -0.00000000
  10         0.00000000
  11        -0.00000000
  12         0.00000000
  13        -0.00000000
  14         0.00000000
  15         0.00000000
  16        -0.00000000
  17        -0.00000000
  18         0.00000000
  19        -0.00000000
  20        -0.00000000
  21         0.00000000
  22        -0.00000000
  23        -0.00000000
  24        -0.00000000
  25         0.00000000
  26         0.00000000
  27         0.00000000
  28        -0.00000001
  29        -0.00000000
  30        -0.00000000
  31         0.00000004
  32         0.00000001
  33         0.00000000
  34        -0.00000004
  35        -0.00000001
  36        -0.00000000
  37         0.00000002
  38         0.00000000
  39         0.00000000
  40        -0.00000001
  41        -0.00000000
  42        -0.00427855
  43         0.00081917
  44        -0.04663162
  45         0.00356876
  46         0.01272867
  47         0.01404686
  48        -0.00268940
  49         0.15309572
  50        -0.01171655
  51        -0.04178933
  52        -0.12259132
  53         0.02347126
  54        -1.33611440
  55         0.10225400
  56         0.36470864
  57         0.06385374
  58        -0.01222540
  59         0.69593754
  60        -0.05326071
  61        -0.18996460
Sym=    30a  
Ene=     0.6030
Spin= Alpha
Occup=    0.00000
   1        -0.00000000
   2        -0.00000000
   3        -0.00000000
   4        -0.00000000
   5        -0.00000000
   6        -0.00000000
   7         0.00000000
   8        -0.00000000
   9         0.00000000
  10        -0.00000000
  11         0.00000001
  12        -0.00000001
  13         0.00000001
  14        -0.00000000
  15        -0.00000000
  16        -0.00000000
  17         0.00000000
  18        -0.00000000
  19        -0.00000000
  20         0.00000000
  21        -0.00000000
  22        -0.00000000
  23         0.00000000
  24         0.00000000
  25         0.00000000
  26        -0.00000000
  27        -0.00000001
  28        -0.00000000
  29         0.00000001
  30         0.00000002
  31         0.00000000
  32        -0.00000004
  33        -0.00000002
  34        -0.00000000
  35         0.00000005
  36         0.00000001
  37         0.00000000
  38        -0.00000002
  39        -0.00000000
  40        -0.00000000
  41         0.00000001
  42         0.04273021
  43        -0.02199282
  44        -0.00318930
  45         0.00659309
  46         0.00224592
  47        -0.14028706
  48         0.07220437
  49         0.01047077
  50        -0.02164571
  51        -0.00737356
  52         1.22432920
  53        -0.63015016
  54        -0.09138166
  55         0.18890889
  56         0.06435139
  57        -0.63771235
  58         0.32822426
  59         0.04759767
  60        -0.09839635
  61        -0.03351850
Sym=    31a  
Ene=     1.0974
Spin= Alpha
Occup=    0.00000
   1        -0.00000794
   2         0.00000542
   3        -0.00049081
   4         0.00076524
   5        -0.01063482
   6         0.01612412
   7        -0.15723575
   8         0.25847892
   9        -0.95446720
  10         3.85786594
  11        -6.94875361
  12         6.03943504
  13        -2.72949894
  14         0.67561900
  15        -0.00000000
  16         0.00000000
  17         0.00000000
  18        -0.00000000
  19        -0.00000000
  20        -0.00000000
  21        -0.00000000
  22         0.00000000
  23         0.00000003
  24        -0.00000000
  25        -0.00000001
  26        -0.00000007
  27        -0.00000001
  28         0.00000004
  29         0.00000046
  30         0.00000000
  31        -0.00000008
  32        -0.00000093
  33        -0.00000001
  34         0.00000005
  35         0.00000059
  36         0.00000000
  37        -0.00000002
  38        -0.00000028
  39        -0.00000000
  40         0.00000001
  41         0.00000007
  42         0.00000000
  43         0.00000000
  44        -0.00000000
  45        -0.00000000
  46         0.00000000
  47         0.00000000
  48         0.00000000
  49        -0.00000000
  50         0.00000000
  51        -0.00000000
  52         0.00000000
  53        -0.00000000
  54         0.00000000
  55        -0.00000000
  56        -0.00000000
  57         0.00000000
  58        -0.00000000
  59         0.00000000
  60        -0.00000000
  61        -0.00000000
Sym=    32a  
Ene=     1.6734
Spin= Alpha
Occup=    0.00000
   1        -0.00000000
   2         0.00000000
   3        -0.00000000
   4         0.00000000
   5        -0.00000000
   6         0.00000001
   7        -0.00000003
   8         0.00000006
   9        -0.00000003
  10        -0.00000014
  11         0.00000028
  12        -0.00000019
  13         0.00000005
  14        -0.00000002
  15         0.00118801
  16         0.00002119
  17         0.00035226
  18        -0.06421519
  19        -0.00114542
  20        -0.01904033
  21         0.05629255
  22         0.00100410
  23         0.01669120
  24        -0.91276966
  25        -0.01628125
  26        -0.27064361
  27         3.06818946
  28         0.05472791
  29         0.90974310
  30        -3.42847231
  31        -0.06115434
  32        -1.01656990
  33         2.05652301
  34         0.03668261
  35         0.60977584
  36        -0.91233652
  37        -0.01627353
  38        -0.27051525
  39         0.23242114
  40         0.00414574
  41         0.06891479
  42        -0.00000000
  43        -0.00000000
  44        -0.00000000
  45        -0.00000000
  46        -0.00000000
  47         0.00000002
  48         0.00000005
  49         0.00000000
  50         0.00000000
  51         0.00000000
  52        -0.00000001
  53        -0.00000004
  54        -0.00000000
  55        -0.00000000
  56        -0.00000000
  57         0.00000000
  58         0.00000001
  59         0.00000000
  60         0.00000000
  61         0.00000000
Sym=    33a  
Ene=     1.6734
Spin= Alpha
Occup=    0.00000
   1        -0.00000000
   2         0.00000000
   3        -0.00000000
   4         0.00000000
   5        -0.00000000
   6         0.00000000
   7        -0.00000000
   8         0.00000000
   9         0.00000002
  10        -0.00000007
  11         0.00000010
  12        -0.00000007
  13         0.00000002
  14        -0.00000001
  15        -0.00001824
  16         0.00123911
  17        -0.00001303
  18         0.00098582
  19        -0.06697737
  20         0.00070442
  21        -0.00086420
  22         0.05871395
  23        -0.00061751
  24         0.01401272
  25        -0.95203200
  26         0.01001276
  27        -0.04710244
  28         3.20016606
  29        -0.03365697
  30         0.05263345
  31        -3.57594628
  32         0.03760915
  33        -0.03157147
  34         2.14498327
  35        -0.02255934
  36         0.01400607
  37        -0.95158020
  38         0.01000802
  39        -0.00356810
  40         0.24241862
  41        -0.00254958
  42         0.00000000
  43         0.00000000
  44        -0.00000000
  45         0.00000000
  46        -0.00000000
  47        -0.00000000
  48        -0.00000000
  49         0.00000005
  50        -0.00000000
  51         0.00000000
  52         0.00000000
  53         0.00000000
  54        -0.00000004
  55         0.00000000
  56        -0.00000000
  57        -0.00000000
  58        -0.00000000
  59         0.00000001
  60        -0.00000000
  61         0.00000000
Sym=    34a  
Ene=     1.6734
Spin= Alpha
Occup=    0.00000
   1         0.00000000
   2        -0.00000000
   3         0.00000000
   4        -0.00000000
   5         0.00000000
   6        -0.00000001
   7         0.00000002
   8        -0.00000004
   9         0.00000027
  10        -0.00000089
  11         0.00000130
  12        -0.00000088
  13         0.00000029
  14        -0.00000009
  15        -0.00035242
  16         0.00000731
  17         0.00118813
  18         0.01904925
  19        -0.00039505
  20        -0.06422154
  21        -0.01669903
  22         0.00034631
  23         0.05629812
  24         0.27077059
  25        -0.00561538
  26        -0.91286002
  27        -0.91016979
  28         0.01887557
  29         3.06849300
  30         1.01704663
  31        -0.02109204
  32        -3.42881133
  33        -0.61006169
  34         0.01265177
  35         2.05672636
  36         0.27064203
  37        -0.00561271
  38        -0.91242685
  39        -0.06894708
  40         0.00142986
  41         0.23244425
  42        -0.00000000
  43         0.00000000
  44        -0.00000000
  45         0.00000000
  46         0.00000000
  47         0.00000005
  48        -0.00000001
  49         0.00000001
  50        -0.00000000
  51        -0.00000000
  52        -0.00000004
  53         0.00000001
  54        -0.00000000
  55         0.00000000
  56         0.00000000
  57         0.00000002
  58        -0.00000000
  59         0.00000000
  60        -0.00000000
  61        -0.00000000
Sym=    35a  
Ene=     1.7499
Spin= Alpha
Occup=    0.00000
   1        -0.00000000
   2        -0.00000000
   3        -0.00000000
   4        -0.00000000
   5        -0.00000000
   6         0.00000000
   7        -0.00000000
   8         0.00000000
   9        -0.00000000
  10         0.00000000
  11        -0.00000000
  12         0.00000000
  13        -0.00000000
  14         0.00000000
  15         0.00000000
  16        -0.00000000
  17        -0.00000000
  18        -0.00000000
  19         0.00000000
  20         0.00000000
  21         0.00000000
  22        -0.00000000
  23        -0.00000000
  24        -0.00000000
  25         0.00000001
  26         0.00000000
  27         0.00000000
  28        -0.00000003
  29        -0.00000000
  30        -0.00000000
  31         0.00000004
  32         0.00000000
  33         0.00000000
  34        -0.00000002
  35        -0.00000000
  36        -0.00000000
  37         0.00000001
  38         0.00000000
  39         0.00000000
  40        -0.00000000
  41        -0.00000000
  42         0.00182751
  43         0.01277213
  44        -0.03020460
  45         0.03726081
  46        -0.10480888
  47        -0.02306965
  48        -0.16122914
  49         0.38128800
  50        -0.47036221
  51         1.32305584
  52         0.01713780
  53         0.11977263
  54        -0.28324821
  55         0.34941896
  56        -0.98286126
  57        -0.00594465
  58        -0.04154597
  59         0.09825134
  60        -0.12120423
  61         0.34092867
Sym=    36a  
Ene=     1.7499
Spin= Alpha
Occup=    0.00000
   1        -0.00000000
   2        -0.00000000
   3        -0.00000000
   4        -0.00000000
   5        -0.00000000
   6         0.00000000
   7        -0.00000000
   8         0.00000000
   9        -0.00000000
  10         0.00000000
  11        -0.00000000
  12         0.00000000
  13        -0.00000000
  14         0.00000000
  15         0.00000000
  16         0.00000000
  17         0.00000000
  18        -0.00000000
  19        -0.00000000
  20        -0.00000000
  21         0.00000000
  22         0.00000000
  23         0.00000000
  24        -0.00000001
  25        -0.00000000
  26        -0.00000000
  27         0.00000003
  28         0.00000000
  29         0.00000000
  30        -0.00000004
  31        -0.00000000
  32        -0.00000000
  33         0.00000002
  34         0.00000000
  35         0.00000000
  36        -0.00000001
  37        -0.00000000
  38        -0.00000000
  39         0.00000000
  40         0.00000000
  41         0.00000000
  42         0.00298131
  43         0.03037119
  44         0.01108706
  45         0.10473561
  46         0.03779267
  47        -0.03763461
  48        -0.38339098
  49        -0.13995764
  50        -1.32213094
  51        -0.47707606
  52         0.02795770
  53         0.28481046
  54         0.10397062
  55         0.98217418
  56         0.35440649
  57        -0.00969779
  58        -0.09879324
  59        -0.03606467
  60        -0.34069034
  61        -0.12293427
Sym=    37a  
Ene=     1.7499
Spin= Alpha
Occup=    0.00000
   1         0.00000000
   2         0.00000000
   3         0.00000000
   4        -0.00000000
   5         0.00000000
   6        -0.00000000
   7         0.00000000
   8        -0.00000000
   9         0.00000000
  10        -0.00000001
  11         0.00000001
  12        -0.00000000
  13         0.00000000
  14        -0.00000000
  15        -0.00000000
  16        -0.00000000
  17        -0.00000000
  18         0.00000000
  19         0.00000000
  20         0.00000000
  21        -0.00000000
  22        -0.00000000
  23        -0.00000000
  24         0.00000003
  25         0.00000000
  26         0.00000002
  27        -0.00000009
  28        -0.00000001
  29        -0.00000006
  30         0.00000009
  31         0.00000001
  32         0.00000007
  33        -0.00000006
  34        -0.00000000
  35        -0.00000004
  36         0.00000002
  37         0.00000000
  38         0.00000002
  39        -0.00000001
  40        -0.00000000
  41        -0.00000000
  42        -0.05733745
  43        -0.09575711
  44        -0.00933003
  45         0.03012417
  46         0.00072945
  47         0.72379980
  48         1.20879077
  49         0.11777773
  50        -0.38027267
  51        -0.00920825
  52        -0.53769067
  53        -0.89797693
  54        -0.08749379
  55         0.28249395
  56         0.00684055
  57         0.18651072
  58         0.31148453
  59         0.03034929
  60        -0.09798971
  61        -0.00237281
Sym=    38a  
Ene=     1.7499
Spin= Alpha
Occup=    0.00000
   1        -0.00000000
   2        -0.00000000
   3        -0.00000000
   4         0.00000000
   5        -0.00000000
   6         0.00000000
   7        -0.00000000
   8         0.00000000
   9        -0.00000000
  10         0.00000000
  11        -0.00000000
  12         0.00000000
  13        -0.00000000
  14         0.00000000
  15         0.00000000
  16        -0.00000000
  17        -0.00000000
  18        -0.00000000
  19         0.00000000
  20         0.00000000
  21         0.00000000
  22        -0.00000000
  23        -0.00000000
  24        -0.00000000
  25         0.00000003
  26         0.00000000
  27         0.00000001
  28        -0.00000010
  29        -0.00000000
  30        -0.00000001
  31         0.00000011
  32         0.00000000
  33         0.00000001
  34        -0.00000007
  35        -0.00000000
  36        -0.00000000
  37         0.00000003
  38         0.00000000
  39         0.00000000
  40        -0.00000001
  41        -0.00000000
  42         0.00734763
  43         0.00608116
  44        -0.11099859
  45        -0.00184245
  46         0.03220256
  47        -0.09275287
  48        -0.07676554
  49         1.40119170
  50         0.02325813
  51        -0.40650926
  52         0.06890352
  53         0.05702698
  54        -1.04090621
  55        -0.01727781
  56         0.30198439
  57        -0.02390081
  58        -0.01978116
  59         0.36106293
  60         0.00599322
  61        -0.10475042
Sym=    39a  
Ene=     1.7499
Spin= Alpha
Occup=    0.00000
   1         0.00000000
   2        -0.00000000
   3         0.00000000
   4        -0.00000000
   5         0.00000000
   6        -0.00000000
   7         0.00000000
   8        -0.00000000
   9         0.00000000
  10        -0.00000000
  11         0.00000001
  12        -0.00000001
  13         0.00000000
  14        -0.00000000
  15         0.00000000
  16         0.00000000
  17        -0.00000000
  18        -0.00000000
  19        -0.00000000
  20         0.00000000
  21         0.00000000
  22         0.00000000
  23        -0.00000000
  24        -0.00000002
  25        -0.00000000
  26         0.00000003
  27         0.00000005
  28         0.00000000
  29        -0.00000010
  30        -0.00000006
  31        -0.00000000
  32         0.00000011
  33         0.00000003
  34         0.00000000
  35        -0.00000007
  36        -0.00000001
  37        -0.00000000
  38         0.00000003
  39         0.00000000
  40         0.00000000
  41        -0.00000001
  42        -0.10049008
  43         0.05621488
  44        -0.00301285
  45        -0.01353802
  46         0.00115354
  47         1.26853740
  48        -0.70962906
  49         0.03803276
  50         0.17089726
  51        -0.01456174
  52        -0.94236103
  53         0.52716363
  54        -0.02825348
  55        -0.12695480
  56         0.01081751
  57         0.32688021
  58        -0.18285917
  59         0.00980039
  60         0.04403728
  61        -0.00375231
Sym=    40a  
Ene=     4.2920
Spin= Alpha
Occup=    0.00000
   1        -0.00000124
   2         0.00028241
   3        -0.00072567
   4         0.00944928
   5        -0.02202412
   6         0.16744272
   7        -0.33732732
   8         2.15040156
   9        -6.16224790
  10         8.44458518
  11        -6.24492675
  12         3.16961965
  13        -1.40570171
  14         0.32683482
  15        -0.00000000
  16         0.00000000
  17         0.00000000
  18         0.00000000
  19        -0.00000000
  20        -0.00000001
  21        -0.00000003
  22         0.00000001
  23         0.00000012
  24         0.00000013
  25        -0.00000005
  26        -0.00000042
  27        -0.00000013
  28         0.00000006
  29         0.00000051
  30         0.00000011
  31        -0.00000003
  32        -0.00000023
  33        -0.00000005
  34         0.00000002
  35         0.00000021
  36         0.00000002
  37        -0.00000001
  38        -0.00000008
  39        -0.00000001
  40         0.00000000
  41         0.00000002
  42        -0.00000000
  43        -0.00000000
  44         0.00000000
  45        -0.00000000
  46        -0.00000000
  47         0.00000000
  48         0.00000000
  49        -0.00000000
  50         0.00000000
  51         0.00000000
  52        -0.00000000
  53        -0.00000000
  54         0.00000000
  55        -0.00000000
  56        -0.00000000
  57        -0.00000000
  58         0.00000000
  59        -0.00000000
  60         0.00000000
  61         0.00000000
Sym=    41a  
Ene=     5.1856
Spin= Alpha
Occup=    0.00000
   1         0.00000000
   2         0.00000000
   3        -0.00000000
   4         0.00000000
   5        -0.00000000
   6         0.00000000
   7        -0.00000000
   8         0.00000000
   9        -0.00000000
  10         0.00000000
  11        -0.00000000
  12         0.00000000
  13        -0.00000000
  14         0.00000000
  15         0.00000000
  16         0.00000000
  17         0.00000000
  18        -0.00000000
  19        -0.00000000
  20        -0.00000000
  21         0.00000000
  22         0.00000000
  23         0.00000000
  24        -0.00000000
  25        -0.00000001
  26        -0.00000000
  27         0.00000000
  28         0.00000001
  29         0.00000000
  30        -0.00000000
  31        -0.00000001
  32        -0.00000000
  33         0.00000000
  34         0.00000000
  35         0.00000000
  36        -0.00000000
  37        -0.00000000
  38        -0.00000000
  39         0.00000000
  40         0.00000000
  41         0.00000000
  42         0.00373152
  43         0.07010792
  44         0.51520900
  45         0.20256226
  46         1.26868264
  47        -0.00305860
  48        -0.05746518
  49        -0.42230005
  50        -0.16603369
  51        -1.03989789
  52         0.00145747
  53         0.02738293
  54         0.20123166
  55         0.07911729
  56         0.49552535
  57        -0.00047827
  58        -0.00898571
  59        -0.06603416
  60        -0.02596233
  61        -0.16260661
Sym=    42a  
Ene=     5.1856
Spin= Alpha
Occup=    0.00000
   1         0.00000000
   2         0.00000000
   3        -0.00000000
   4         0.00000000
   5        -0.00000000
   6         0.00000000
   7        -0.00000000
   8         0.00000000
   9        -0.00000001
  10         0.00000001
  11        -0.00000001
  12         0.00000000
  13        -0.00000000
  14         0.00000000
  15         0.00000000
  16        -0.00000000
  17         0.00000000
  18        -0.00000000
  19         0.00000000
  20        -0.00000000
  21         0.00000000
  22        -0.00000000
  23         0.00000000
  24        -0.00000001
  25         0.00000000
  26        -0.00000000
  27         0.00000001
  28        -0.00000000
  29         0.00000000
  30        -0.00000001
  31         0.00000000
  32        -0.00000000
  33         0.00000000
  34        -0.00000000
  35         0.00000000
  36        -0.00000000
  37         0.00000000
  38        -0.00000000
  39         0.00000000
  40        -0.00000000
  41         0.00000000
  42         0.10342106
  43         0.56372874
  44        -0.07990746
  45         1.24380115
  46        -0.19759543
  47        -0.08477088
  48        -0.46207010
  49         0.06549755
  50        -1.01950334
  51         0.16196254
  52         0.04039447
  53         0.22018263
  54        -0.03121046
  55         0.48580707
  56        -0.07717733
  57        -0.01325544
  58        -0.07225292
  59         0.01024171
  60        -0.15941756
  61         0.02532574
Sym=    43a  
Ene=     5.1856
Spin= Alpha
Occup=    0.00000
   1         0.00000000
   2         0.00000000
   3        -0.00000000
   4         0.00000000
   5        -0.00000000
   6         0.00000000
   7        -0.00000000
   8         0.00000001
   9        -0.00000002
  10         0.00000002
  11        -0.00000002
  12         0.00000001
  13        -0.00000000
  14         0.00000000
  15         0.00000000
  16        -0.00000000
  17         0.00000000
  18        -0.00000000
  19         0.00000000
  20        -0.00000000
  21         0.00000000
  22        -0.00000000
  23         0.00000000
  24        -0.00000001
  25         0.00000000
  26        -0.00000001
  27         0.00000001
  28        -0.00000000
  29         0.00000001
  30        -0.00000001
  31         0.00000000
  32        -0.00000001
  33         0.00000001
  34        -0.00000000
  35         0.00000001
  36        -0.00000000
  37         0.00000000
  38        -0.00000000
  39         0.00000000
  40        -0.00000000
  41         0.00000000
  42         0.81072624
  43         0.99844745
  44         0.00931575
  45        -0.51599662
  46         0.02104354
  47        -0.66452592
  48        -0.81839489
  49        -0.00763581
  50         0.42294564
  51        -0.01724870
  52         0.31665555
  53         0.38997619
  54         0.00363857
  55        -0.20153929
  56         0.00821924
  57        -0.10391050
  58        -0.12797066
  59        -0.00119400
  60         0.06613511
  61        -0.00269714
Sym=    44a  
Ene=     5.1856
Spin= Alpha
Occup=    0.00000
   1         0.00000000
   2         0.00000000
   3        -0.00000000
   4         0.00000000
   5        -0.00000000
   6         0.00000000
   7        -0.00000000
   8         0.00000000
   9        -0.00000000
  10         0.00000000
  11        -0.00000000
  12         0.00000000
  13        -0.00000000
  14         0.00000000
  15         0.00000000
  16        -0.00000000
  17        -0.00000000
  18        -0.00000000
  19         0.00000000
  20         0.00000000
  21         0.00000000
  22        -0.00000001
  23        -0.00000000
  24        -0.00000000
  25         0.00000002
  26         0.00000000
  27         0.00000000
  28        -0.00000002
  29        -0.00000000
  30        -0.00000000
  31         0.00000001
  32         0.00000000
  33         0.00000000
  34        -0.00000001
  35        -0.00000000
  36        -0.00000000
  37         0.00000000
  38         0.00000000
  39         0.00000000
  40        -0.00000000
  41        -0.00000000
  42         0.01106946
  43        -0.00672314
  44        -1.28409860
  45         0.00246450
  46         0.52141486
  47        -0.00907327
  48         0.00551074
  49         1.05253384
  50        -0.00202007
  51        -0.42738679
  52         0.00432354
  53        -0.00262594
  54        -0.50154655
  55         0.00096259
  56         0.20365556
  57        -0.00141877
  58         0.00086170
  59         0.16458247
  60        -0.00031587
  61        -0.06682956
Sym=    45a  
Ene=     5.1856
Spin= Alpha
Occup=    0.00000
   1        -0.00000000
   2         0.00000000
   3        -0.00000000
   4         0.00000000
   5        -0.00000000
   6         0.00000000
   7        -0.00000000
   8         0.00000000
   9        -0.00000000
  10         0.00000001
  11        -0.00000000
  12         0.00000000
  13        -0.00000000
  14         0.00000000
  15        -0.00000000
  16        -0.00000000
  17         0.00000000
  18         0.00000000
  19         0.00000000
  20        -0.00000000
  21        -0.00000000
  22        -0.00000000
  23         0.00000001
  24         0.00000001
  25         0.00000000
  26        -0.00000002
  27        -0.00000001
  28        -0.00000000
  29         0.00000002
  30         0.00000001
  31         0.00000000
  32        -0.00000001
  33        -0.00000000
  34        -0.00000000
  35         0.00000001
  36         0.00000000
  37         0.00000000
  38        -0.00000000
  39        -0.00000000
  40        -0.00000000
  41         0.00000000
  42         1.11930651
  43        -0.77544100
  44         0.01161734
  45         0.25811841
  46        -0.00637083
  47        -0.91745913
  48         0.63560376
  49        -0.00952235
  50        -0.21157126
  51         0.00522196
  52         0.43718163
  53        -0.30287375
  54         0.00453753
  55         0.10081655
  56        -0.00248833
  57        -0.14346112
  58         0.09938800
  59        -0.00148899
  60        -0.03308295
  61         0.00081655
Sym=    46a  
Ene=     5.6386
Spin= Alpha
Occup=    0.00000
   1         0.00000000
   2        -0.00000000
   3         0.00000000
   4        -0.00000000
   5         0.00000001
   6        -0.00000003
   7         0.00000015
   8        -0.00000040
   9         0.00000058
  10        -0.00000047
  11         0.00000023
  12        -0.00000013
  13         0.00000009
  14        -0.00000001
  15         0.02081170
  16         0.00003140
  17         0.01419926
  18        -0.06336449
  19        -0.00009559
  20        -0.04323189
  21         1.22361517
  22         0.00184597
  23         0.83483968
  24        -2.82228575
  25        -0.00425777
  26        -1.92556956
  27         2.57341372
  28         0.00388231
  29         1.75577085
  30        -1.58948919
  31        -0.00239794
  32        -1.08446565
  33         0.91294622
  34         0.00137729
  35         0.62287859
  36        -0.38249230
  37        -0.00057704
  38        -0.26096413
  39         0.09972822
  40         0.00015045
  41         0.06804182
  42        -0.00000001
  43        -0.00000001
  44        -0.00000000
  45        -0.00000000
  46        -0.00000000
  47         0.00000001
  48         0.00000001
  49         0.00000000
  50         0.00000000
  51         0.00000000
  52        -0.00000000
  53        -0.00000000
  54        -0.00000000
  55        -0.00000000
  56        -0.00000000
  57         0.00000000
  58         0.00000000
  59         0.00000000
  60         0.00000000
  61         0.00000000
Sym=    47a  
Ene=     5.6386
Spin= Alpha
Occup=    0.00000
   1         0.00000000
   2        -0.00000000
   3         0.00000000
   4        -0.00000000
   5         0.00000000
   6        -0.00000001
   7         0.00000002
   8        -0.00000007
   9         0.00000013
  10        -0.00000013
  11         0.00000008
  12        -0.00000004
  13         0.00000002
  14        -0.00000000
  15         0.00016694
  16         0.02519184
  17        -0.00030039
  18        -0.00050829
  19        -0.07670052
  20         0.00091459
  21         0.00981539
  22         1.48114369
  23        -0.01766138
  24        -0.02263934
  25        -3.41627886
  26         0.04073622
  27         0.02064298
  28         3.11502789
  29        -0.03714405
  30        -0.01275030
  31        -1.92402144
  32         0.02294232
  33         0.00732332
  34         1.10508970
  35        -0.01317725
  36        -0.00306821
  37        -0.46299364
  38         0.00552080
  39         0.00079998
  40         0.12071754
  41        -0.00143945
  42         0.00000000
  43         0.00000000
  44        -0.00000001
  45         0.00000000
  46        -0.00000000
  47        -0.00000000
  48        -0.00000000
  49         0.00000001
  50        -0.00000000
  51         0.00000000
  52         0.00000000
  53         0.00000000
  54        -0.00000000
  55         0.00000000
  56        -0.00000000
  57        -0.00000000
  58        -0.00000000
  59         0.00000000
  60        -0.00000000
  61         0.00000000
Sym=    48a  
Ene=     5.6386
Spin= Alpha
Occup=    0.00000
   1         0.00000000
   2        -0.00000000
   3         0.00000000
   4        -0.00000000
   5         0.00000000
   6        -0.00000002
   7         0.00000008
   8        -0.00000040
   9         0.00000092
  10        -0.00000104
  11         0.00000062
  12        -0.00000032
  13         0.00000019
  14        -0.00000003
  15        -0.01419832
  16         0.00034223
  17         0.02080955
  18         0.04322902
  19        -0.00104196
  20        -0.06335798
  21        -0.83478408
  22         0.02012110
  23         1.22348920
  24         1.92544120
  25        -0.04640960
  26        -2.82199500
  27        -1.75565380
  28         0.04231715
  29         2.57314851
  30         1.08439337
  31        -0.02613752
  32        -1.58932541
  33        -0.62283713
  34         0.01501247
  35         0.91285216
  36         0.26094681
  37        -0.00628969
  38        -0.38245281
  39        -0.06803733
  40         0.00163993
  41         0.09971785
  42        -0.00000001
  43         0.00000000
  44        -0.00000000
  45         0.00000000
  46         0.00000000
  47         0.00000001
  48        -0.00000000
  49         0.00000000
  50        -0.00000000
  51        -0.00000000
  52        -0.00000000
  53         0.00000000
  54        -0.00000000
  55         0.00000000
  56         0.00000000
  57         0.00000000
  58        -0.00000000
  59         0.00000000
  60        -0.00000000
  61        -0.00000000
Sym=    49a  
Ene=    16.7110
Spin= Alpha
Occup=    0.00000
   1         0.00010318
   2        -0.00045067
   3         0.00728594
   4        -0.02289392
   5         0.17334000
   6        -0.48510076
   7         3.20597362
   8        -7.03786810
   9         7.57985402
  10        -5.09600396
  11         2.95146151
  12        -1.56390731
  13         0.59968434
  14        -0.15161955
  15        -0.00000001
  16        -0.00000000
  17        -0.00000001
  18         0.00000015
  19         0.00000004
  20         0.00000025
  21        -0.00000043
  22        -0.00000010
  23        -0.00000067
  24         0.00000034
  25         0.00000008
  26         0.00000055
  27        -0.00000024
  28        -0.00000005
  29        -0.00000035
  30         0.00000011
  31         0.00000003
  32         0.00000024
  33        -0.00000009
  34        -0.00000002
  35        -0.00000011
  36         0.00000003
  37         0.00000001
  38         0.00000005
  39        -0.00000001
  40        -0.00000000
  41        -0.00000001
  42         0.00000000
  43         0.00000000
  44        -0.00000000
  45         0.00000000
  46         0.00000000
  47        -0.00000000
  48        -0.00000000
  49         0.00000000
  50         0.00000000
  51        -0.00000000
  52         0.00000000
  53         0.00000000
  54        -0.00000000
  55         0.00000000
  56         0.00000000
  57        -0.00000000
  58         0.00000000
  59        -0.00000000
  60         0.00000000
  61         0.00000000
Sym=    50a  
Ene=    21.8830
Spin= Alpha
Occup=    0.00000
   1        -0.00000000
   2         0.00000000
   3        -0.00000000
   4         0.00000000
   5        -0.00000004
   6         0.00000010
   7        -0.00000069
   8         0.00000148
   9        -0.00000157
  10         0.00000108
  11        -0.00000065
  12         0.00000033
  13        -0.00000011
  14         0.00000003
  15        -0.05450336
  16        -0.00020586
  17        -0.03162113
  18         1.45608414
  19         0.00549977
  20         0.84477422
  21        -2.38521184
  22        -0.00900918
  23        -1.38382489
  24         1.82575500
  25         0.00689605
  26         1.05924563
  27        -1.17876341
  28        -0.00445230
  29        -0.68388146
  30         0.74353072
  31         0.00280839
  32         0.43137315
  33        -0.37957147
  34        -0.00143368
  35        -0.22021545
  36         0.17282712
  37         0.00065278
  38         0.10026889
  39        -0.04539389
  40        -0.00017146
  41        -0.02633613
  42        -0.00000000
  43        -0.00000000
  44        -0.00000000
  45        -0.00000000
  46        -0.00000000
  47         0.00000000
  48         0.00000000
  49         0.00000000
  50         0.00000000
  51         0.00000000
  52        -0.00000000
  53        -0.00000000
  54        -0.00000000
  55         0.00000000
  56        -0.00000000
  57        -0.00000000
  58        -0.00000000
  59         0.00000000
  60        -0.00000000
  61         0.00000000
Sym=    51a  
Ene=    21.8830
Spin= Alpha
Occup=    0.00000
   1        -0.00000000
   2         0.00000000
   3        -0.00000000
   4         0.00000000
   5        -0.00000000
   6         0.00000001
   7        -0.00000009
   8         0.00000019
   9        -0.00000020
  10         0.00000013
  11        -0.00000008
  12         0.00000004
  13        -0.00000001
  14         0.00000000
  15        -0.00019528
  16        -0.06300761
  17         0.00074679
  18         0.00521690
  19         1.68327941
  20        -0.01995078
  21        -0.00854581
  22        -2.75738042
  23         0.03268138
  24         0.00654137
  25         2.11063058
  26        -0.02501588
  27        -0.00422331
  28        -1.36268781
  29         0.01615102
  30         0.00266395
  31         0.85954504
  32        -0.01018761
  33        -0.00135994
  34        -0.43879663
  35         0.00520076
  36         0.00061921
  37         0.19979362
  38        -0.00236802
  39        -0.00016264
  40        -0.05247677
  41         0.00062197
  42         0.00000000
  43         0.00000000
  44        -0.00000000
  45         0.00000000
  46        -0.00000000
  47        -0.00000000
  48        -0.00000000
  49         0.00000000
  50        -0.00000000
  51         0.00000000
  52         0.00000000
  53         0.00000000
  54        -0.00000000
  55         0.00000000
  56         0.00000000
  57        -0.00000000
  58        -0.00000000
  59        -0.00000000
  60        -0.00000000
  61        -0.00000000
Sym=    52a  
Ene=    21.8830
Spin= Alpha
Occup=    0.00000
   1        -0.00000000
   2         0.00000000
   3        -0.00000000
   4         0.00000000
   5        -0.00000002
   6         0.00000008
   7        -0.00000042
   8         0.00000080
   9        -0.00000075
  10         0.00000048
  11        -0.00000033
  12         0.00000016
  13        -0.00000004
  14         0.00000002
  15         0.03162120
  16        -0.00074394
  17        -0.05449864
  18        -0.84477604
  19         0.01987466
  20         1.45595789
  21         1.38382778
  22        -0.03255669
  23        -2.38500489
  24        -1.05924781
  25         0.02492044
  26         1.82559655
  27         0.68388286
  28        -0.01608940
  29        -1.17866111
  30        -0.43137400
  31         0.01014874
  32         0.74346616
  33         0.22021586
  34        -0.00518092
  35        -0.37953852
  36        -0.10026906
  37         0.00235898
  38         0.17281216
  39         0.02633616
  40        -0.00061960
  41        -0.04539000
  42        -0.00000000
  43         0.00000000
  44        -0.00000000
  45         0.00000000
  46         0.00000000
  47         0.00000000
  48        -0.00000000
  49         0.00000000
  50        -0.00000000
  51        -0.00000000
  52        -0.00000000
  53         0.00000000
  54        -0.00000000
  55        -0.00000000
  56         0.00000000
  57        -0.00000000
  58         0.00000000
  59         0.00000000
  60        -0.00000000
  61        -0.00000000
