[MOLDEN FORMAT]
[N_ATOMS]
                    1
[ATOMS] (AU)
BE          1      4           0.00000000      0.00000000      0.00000000
[5D]
[CHARGE] (MULLIKEN)
   0.0000000000000000     
[GTO] (AU)
   1
   s   1
  0.227191134E+05  0.100000000E+01
   s   1
  0.338580737E+04  0.100000000E+01
   s   1
  0.763391802E+03  0.100000000E+01
   s   1
  0.212587442E+03  0.100000000E+01
   s   1
  0.674923619E+02  0.100000000E+01
   s   1
  0.234656657E+02  0.100000000E+01
   s   1
  0.875625849E+01  0.100000000E+01
   s   1
  0.348196336E+01  0.100000000E+01
   s   1
  0.145795258E+01  0.100000000E+01
   s   1
  0.611049460E+00  0.100000000E+01
   s   1
  0.258716744E+00  0.100000000E+01
   s   1
  0.104592704E+00  0.100000000E+01
   s   1
  0.425967080E-01  0.100000000E+01
   s   1
  0.149083960E-01  0.100000000E+01
   p   1
  0.337101840E+02  0.100000000E+01
   p   1
  0.805764950E+01  0.100000000E+01
   p   1
  0.283647140E+01  0.100000000E+01
   p   1
  0.109996570E+01  0.100000000E+01
   p   1
  0.443396400E+00  0.100000000E+01
   p   1
  0.182226400E+00  0.100000000E+01
   p   1
  0.757241000E-01  0.100000000E+01
   p   1
  0.316854000E-01  0.100000000E+01
   p   1
  0.110899000E-01  0.100000000E+01
   d   1
  0.140000000E+01  0.100000000E+01
   d   1
  0.490000000E+00  0.100000000E+01
   d   1
  0.171500000E+00  0.100000000E+01
   d   1
  0.600250000E-01  0.100000000E+01
 
[MO]
Sym=     1a  
Ene=    -4.7332
Spin= Alpha
Occup=    2.00000
   1         0.00008411
   2         0.00045797
   3         0.00227447
   4         0.00960067
   5         0.03478234
   6         0.10566631
   7         0.24507154
   8         0.38579751
   9         0.31160299
  10         0.06498302
  11        -0.00228509
  12        -0.00049845
  13        -0.00089007
  14         0.00012613
  15         0.00000000
  16         0.00000000
  17        -0.00000000
  18        -0.00000000
  19        -0.00000000
  20         0.00000000
  21         0.00000000
  22         0.00000000
  23        -0.00000000
  24        -0.00000000
  25        -0.00000000
  26         0.00000000
  27        -0.00000000
  28        -0.00000000
  29         0.00000000
  30         0.00000000
  31         0.00000000
  32        -0.00000000
  33         0.00000000
  34         0.00000000
  35        -0.00000000
  36        -0.00000000
  37        -0.00000000
  38         0.00000000
  39         0.00000000
  40         0.00000000
  41        -0.00000000
  42         0.00000000
  43        -0.00000000
  44        -0.00000000
  45         0.00000000
  46        -0.00000000
  47         0.00000000
  48         0.00000000
  49         0.00000000
  50        -0.00000000
  51         0.00000000
  52         0.00000000
  53        -0.00000000
  54        -0.00000000
  55        -0.00000000
  56         0.00000000
  57         0.00000000
  58         0.00000000
  59         0.00000000
  60         0.00000000
  61         0.00000000
Sym=     2a  
Ene=    -0.3093
Spin= Alpha
Occup=    2.00000
   1        -0.00001585
   2        -0.00008596
   3        -0.00042881
   4        -0.00181428
   5        -0.00665561
   6        -0.02084999
   7        -0.05184248
   8        -0.09820023
   9        -0.13560195
  10        -0.06511588
  11         0.31021941
  12         0.62744382
  13         0.21312817
  14        -0.00403699
  15        -0.00000000
  16        -0.00000000
  17         0.00000000
  18         0.00000000
  19         0.00000000
  20        -0.00000000
  21        -0.00000000
  22        -0.00000000
  23         0.00000000
  24         0.00000000
  25         0.00000000
  26         0.00000000
  27         0.00000000
  28         0.00000000
  29        -0.00000000
  30        -0.00000000
  31        -0.00000000
  32         0.00000000
  33        -0.00000000
  34        -0.00000000
  35        -0.00000000
  36         0.00000000
  37         0.00000000
  38        -0.00000000
  39        -0.00000000
  40        -0.00000000
  41         0.00000000
  42        -0.00000000
  43         0.00000000
  44        -0.00000000
  45        -0.00000000
  46         0.00000000
  47        -0.00000000
  48        -0.00000000
  49         0.00000000
  50         0.00000000
  51        -0.00000000
  52        -0.00000000
  53         0.00000000
  54        -0.00000000
  55         0.00000000
  56        -0.00000000
  57        -0.00000000
  58        -0.00000000
  59         0.00000000
  60        -0.00000000
  61         0.00000000
Sym=     3a  
Ene=     3.0243
Spin= Alpha
Occup=    0.00000
   1         0.00000000
   2         0.00000000
   3        -0.00000000
   4         0.00000000
   5         0.00000000
   6        -0.00000000
   7         0.00000000
   8        -0.00000000
   9         0.00000000
  10        -0.00000000
  11         0.00000000
  12         0.00000000
  13        -0.00000000
  14         0.00000000
  15        -0.00000000
  16        -0.00000000
  17         0.00005414
  18         0.00000000
  19         0.00000000
  20        -0.00048381
  21        -0.00000000
  22        -0.00000000
  23         0.00233991
  24         0.00000000
  25         0.00000000
  26        -0.00853733
  27         0.00000000
  28         0.00000000
  29         0.02698798
  30        -0.00000000
  31        -0.00000000
  32        -0.07842331
  33        -0.00000000
  34        -0.00000000
  35         0.21105341
  36         0.00000000
  37         0.00000000
  38        -0.48537986
  39        -0.00000000
  40        -0.00000000
  41         1.25839548
  42         0.00000000
  43        -0.00000000
  44        -0.00000000
  45         0.00000000
  46         0.00000000
  47        -0.00000000
  48         0.00000000
  49         0.00000000
  50        -0.00000000
  51        -0.00000000
  52         0.00000000
  53        -0.00000000
  54        -0.00000000
  55         0.00000000
  56        -0.00000000
  57        -0.00000000
  58         0.00000000
  59         0.00000000
  60        -0.00000000
  61        -0.00000000
Sym=     4a  
Ene=     3.0243
Spin= Alpha
Occup=    0.00000
   1        -0.00000000
   2        -0.00000000
   3        -0.00000000
   4        -0.00000000
   5        -0.00000000
   6        -0.00000000
   7        -0.00000000
   8        -0.00000000
   9        -0.00000000
  10        -0.00000000
  11         0.00000000
  12         0.00000000
  13         0.00000000
  14        -0.00000000
  15        -0.00000000
  16         0.00005414
  17         0.00000000
  18         0.00000000
  19        -0.00048381
  20        -0.00000000
  21        -0.00000000
  22         0.00233991
  23         0.00000000
  24         0.00000000
  25        -0.00853733
  26         0.00000000
  27         0.00000000
  28         0.02698798
  29        -0.00000000
  30        -0.00000000
  31        -0.07842331
  32         0.00000000
  33        -0.00000000
  34         0.21105341
  35        -0.00000000
  36         0.00000000
  37        -0.48537986
  38        -0.00000000
  39        -0.00000000
  40         1.25839548
  41         0.00000000
  42        -0.00000000
  43         0.00000000
  44        -0.00000000
  45        -0.00000000
  46         0.00000000
  47        -0.00000000
  48        -0.00000000
  49         0.00000000
  50         0.00000000
  51        -0.00000000
  52        -0.00000000
  53         0.00000000
  54        -0.00000000
  55         0.00000000
  56        -0.00000000
  57        -0.00000000
  58        -0.00000000
  59        -0.00000000
  60        -0.00000000
  61         0.00000000
Sym=     5a  
Ene=     3.0243
Spin= Alpha
Occup=    0.00000
   1        -0.00000000
   2        -0.00000000
   3        -0.00000000
   4        -0.00000000
   5        -0.00000000
   6        -0.00000000
   7        -0.00000000
   8        -0.00000000
   9        -0.00000000
  10        -0.00000000
  11         0.00000000
  12         0.00000000
  13         0.00000000
  14        -0.00000000
  15         0.00005414
  16        -0.00000000
  17         0.00000000
  18        -0.00048381
  19         0.00000000
  20        -0.00000000
  21         0.00233991
  22        -0.00000000
  23         0.00000000
  24        -0.00853733
  25         0.00000000
  26         0.00000000
  27         0.02698798
  28         0.00000000
  29        -0.00000000
  30        -0.07842331
  31        -0.00000000
  32         0.00000000
  33         0.21105341
  34        -0.00000000
  35        -0.00000000
  36        -0.48537986
  37         0.00000000
  38        -0.00000000
  39         1.25839548
  40        -0.00000000
  41         0.00000000
  42        -0.00000000
  43         0.00000000
  44        -0.00000000
  45        -0.00000000
  46         0.00000000
  47        -0.00000000
  48        -0.00000000
  49         0.00000000
  50         0.00000000
  51        -0.00000000
  52        -0.00000000
  53         0.00000000
  54        -0.00000000
  55         0.00000000
  56        -0.00000000
  57        -0.00000000
  58        -0.00000000
  59        -0.00000000
  60        -0.00000000
  61         0.00000000
Sym=     6a  
Ene=     3.0387
Spin= Alpha
Occup=    0.00000
   1        -0.00000018
   2         0.00000216
   3        -0.00001534
   4         0.00008355
   5        -0.00036057
   6         0.00154349
   7        -0.00461862
   8         0.01983023
   9        -0.03785112
  10         0.14601158
  11        -0.27947630
  12         0.66926710
  13        -1.83351540
  14         1.93499184
  15        -0.00000000
  16        -0.00000000
  17        -0.00000000
  18         0.00000000
  19         0.00000000
  20         0.00000000
  21        -0.00000000
  22        -0.00000000
  23        -0.00000000
  24         0.00000000
  25         0.00000000
  26         0.00000000
  27         0.00000000
  28         0.00000000
  29        -0.00000000
  30        -0.00000000
  31        -0.00000000
  32         0.00000000
  33        -0.00000000
  34        -0.00000000
  35        -0.00000000
  36         0.00000000
  37         0.00000000
  38         0.00000000
  39        -0.00000000
  40        -0.00000000
  41        -0.00000000
  42        -0.00000000
  43        -0.00000000
  44        -0.00000000
  45        -0.00000000
  46         0.00000000
  47         0.00000000
  48         0.00000000
  49         0.00000000
  50         0.00000000
  51        -0.00000000
  52        -0.00000000
  53        -0.00000000
  54        -0.00000000
  55        -0.00000000
  56         0.00000000
  57         0.00000000
  58         0.00000000
  59         0.00000000
  60         0.00000000
  61        -0.00000000
Sym=     7a  
Ene=     3.0954
Spin= Alpha
Occup=    0.00000
   1        -0.00000000
   2        -0.00000000
   3         0.00000000
   4        -0.00000000
   5         0.00000000
   6        -0.00000000
   7         0.00000000
   8        -0.00000000
   9         0.00000000
  10        -0.00000000
  11         0.00000000
  12        -0.00000000
  13         0.00000000
  14        -0.00000000
  15        -0.00000000
  16        -0.00000000
  17        -0.00017520
  18         0.00000000
  19         0.00000000
  20         0.00156768
  21        -0.00000000
  22        -0.00000000
  23        -0.00760347
  24         0.00000000
  25         0.00000000
  26         0.02792513
  27        -0.00000000
  28         0.00000000
  29        -0.08961760
  30        -0.00000000
  31        -0.00000000
  32         0.26936035
  33        -0.00000000
  34         0.00000000
  35        -0.77967746
  36         0.00000000
  37        -0.00000000
  38         2.05621770
  39        -0.00000000
  40        -0.00000000
  41        -1.01234483
  42        -0.00000000
  43        -0.00000000
  44        -0.00000000
  45         0.00000000
  46        -0.00000000
  47        -0.00000000
  48         0.00000000
  49         0.00000000
  50        -0.00000000
  51        -0.00000000
  52        -0.00000000
  53        -0.00000000
  54        -0.00000000
  55        -0.00000000
  56        -0.00000000
  57         0.00000000
  58         0.00000000
  59         0.00000000
  60         0.00000000
  61        -0.00000000
Sym=     8a  
Ene=     3.0954
Spin= Alpha
Occup=    0.00000
   1         0.00000000
   2         0.00000000
   3         0.00000000
   4         0.00000000
   5         0.00000000
   6         0.00000000
   7         0.00000000
   8         0.00000000
   9         0.00000000
  10         0.00000000
  11        -0.00000000
  12        -0.00000000
  13        -0.00000000
  14         0.00000000
  15         0.00000000
  16        -0.00017520
  17        -0.00000000
  18        -0.00000000
  19         0.00156768
  20         0.00000000
  21         0.00000000
  22        -0.00760347
  23        -0.00000000
  24        -0.00000000
  25         0.02792513
  26        -0.00000000
  27        -0.00000000
  28        -0.08961760
  29         0.00000000
  30         0.00000000
  31         0.26936035
  32        -0.00000000
  33         0.00000000
  34        -0.77967746
  35         0.00000000
  36        -0.00000000
  37         2.05621769
  38         0.00000000
  39         0.00000000
  40        -1.01234483
  41        -0.00000000
  42         0.00000000
  43        -0.00000000
  44         0.00000000
  45         0.00000000
  46        -0.00000000
  47         0.00000000
  48         0.00000000
  49        -0.00000000
  50        -0.00000000
  51         0.00000000
  52         0.00000000
  53        -0.00000000
  54         0.00000000
  55        -0.00000000
  56         0.00000000
  57         0.00000000
  58         0.00000000
  59         0.00000000
  60         0.00000000
  61        -0.00000000
Sym=     9a  
Ene=     3.0954
Spin= Alpha
Occup=    0.00000
   1         0.00000000
   2         0.00000000
   3         0.00000000
   4         0.00000000
   5         0.00000000
   6         0.00000000
   7         0.00000000
   8         0.00000000
   9         0.00000000
  10         0.00000000
  11        -0.00000000
  12        -0.00000000
  13        -0.00000000
  14         0.00000000
  15        -0.00017520
  16         0.00000000
  17        -0.00000000
  18         0.00156768
  19        -0.00000000
  20         0.00000000
  21        -0.00760347
  22         0.00000000
  23        -0.00000000
  24         0.02792513
  25        -0.00000000
  26        -0.00000000
  27        -0.08961760
  28        -0.00000000
  29         0.00000000
  30         0.26936035
  31         0.00000000
  32        -0.00000000
  33        -0.77967746
  34         0.00000000
  35         0.00000000
  36         2.05621769
  37        -0.00000000
  38         0.00000000
  39        -1.01234483
  40         0.00000000
  41        -0.00000000
  42         0.00000000
  43        -0.00000000
  44         0.00000000
  45         0.00000000
  46        -0.00000000
  47         0.00000000
  48         0.00000000
  49        -0.00000000
  50        -0.00000000
  51         0.00000000
  52         0.00000000
  53        -0.00000000
  54         0.00000000
  55        -0.00000000
  56         0.00000000
  57         0.00000000
  58         0.00000000
  59         0.00000000
  60         0.00000000
  61        -0.00000000
Sym=    10a  
Ene=     3.1944
Spin= Alpha
Occup=    0.00000
   1        -0.00000000
   2         0.00000000
   3         0.00000000
   4         0.00000000
   5        -0.00000000
   6         0.00000000
   7        -0.00000000
   8         0.00000000
   9         0.00000000
  10        -0.00000000
  11         0.00000000
  12        -0.00000000
  13         0.00000000
  14        -0.00000000
  15        -0.00000000
  16        -0.00000000
  17         0.00000000
  18         0.00000000
  19        -0.00000000
  20        -0.00000000
  21        -0.00000000
  22        -0.00000000
  23         0.00000000
  24         0.00000000
  25         0.00000000
  26        -0.00000000
  27         0.00000000
  28        -0.00000000
  29         0.00000000
  30        -0.00000000
  31        -0.00000000
  32        -0.00000000
  33         0.00000000
  34         0.00000000
  35         0.00000000
  36        -0.00000000
  37        -0.00000000
  38        -0.00000000
  39         0.00000000
  40        -0.00000000
  41         0.00000000
  42        -0.00152250
  43         0.00093933
  44         0.00289074
  45        -0.00062089
  46        -0.01220385
  47         0.00778457
  48        -0.00480281
  49        -0.01478041
  50         0.00317460
  51         0.06239848
  52        -0.03268942
  53         0.02016824
  54         0.06206681
  55        -0.01333098
  56        -0.26202751
  57         0.13733225
  58        -0.08472923
  59        -0.26075028
  60         0.05600509
  61         1.10080963
Sym=    11a  
Ene=     3.1944
Spin= Alpha
Occup=    0.00000
   1         0.00000000
   2         0.00000000
   3         0.00000000
   4        -0.00000000
   5         0.00000000
   6        -0.00000000
   7        -0.00000000
   8        -0.00000000
   9         0.00000000
  10         0.00000000
  11        -0.00000000
  12         0.00000000
  13        -0.00000000
  14         0.00000000
  15         0.00000000
  16         0.00000000
  17        -0.00000000
  18        -0.00000000
  19        -0.00000000
  20         0.00000000
  21         0.00000000
  22         0.00000000
  23        -0.00000000
  24        -0.00000000
  25        -0.00000000
  26         0.00000000
  27        -0.00000000
  28        -0.00000000
  29        -0.00000000
  30         0.00000000
  31         0.00000000
  32         0.00000000
  33         0.00000000
  34         0.00000000
  35        -0.00000000
  36        -0.00000000
  37        -0.00000000
  38         0.00000000
  39         0.00000000
  40         0.00000000
  41        -0.00000000
  42         0.00071579
  43         0.00155267
  44        -0.00984723
  45         0.00733665
  46        -0.00267558
  47        -0.00365983
  48        -0.00793881
  49         0.05034906
  50        -0.03751239
  51         0.01368028
  52         0.01536859
  53         0.03333712
  54        -0.21142881
  55         0.15752432
  56        -0.05744705
  57        -0.06456535
  58        -0.14005330
  59         0.88823832
  60        -0.66177896
  61         0.24134208
Sym=    12a  
Ene=     3.1944
Spin= Alpha
Occup=    0.00000
   1         0.00000000
   2        -0.00000000
   3        -0.00000000
   4         0.00000000
   5         0.00000000
   6        -0.00000000
   7         0.00000000
   8         0.00000000
   9        -0.00000000
  10         0.00000000
  11        -0.00000000
  12         0.00000000
  13        -0.00000000
  14         0.00000000
  15        -0.00000000
  16        -0.00000000
  17        -0.00000000
  18         0.00000000
  19         0.00000000
  20         0.00000000
  21        -0.00000000
  22        -0.00000000
  23        -0.00000000
  24         0.00000000
  25        -0.00000000
  26         0.00000000
  27         0.00000000
  28         0.00000000
  29        -0.00000000
  30        -0.00000000
  31        -0.00000000
  32         0.00000000
  33        -0.00000000
  34        -0.00000000
  35        -0.00000000
  36         0.00000000
  37         0.00000000
  38         0.00000000
  39        -0.00000000
  40        -0.00000000
  41        -0.00000000
  42         0.00372031
  43        -0.01165253
  44        -0.00229258
  45        -0.00163801
  46        -0.00182073
  47        -0.01902201
  48         0.05957957
  49         0.01172197
  50         0.00837517
  51         0.00930944
  52         0.07987837
  53        -0.25019016
  54        -0.04922362
  55        -0.03516952
  56        -0.03909277
  57        -0.33557882
  58         1.05107948
  59         0.20679445
  60         0.14775148
  61         0.16423351
Sym=    13a  
Ene=     3.1944
Spin= Alpha
Occup=    0.00000
   1        -0.00000000
   2         0.00000000
   3        -0.00000000
   4         0.00000000
   5         0.00000000
   6        -0.00000000
   7         0.00000000
   8        -0.00000000
   9         0.00000000
  10        -0.00000000
  11         0.00000000
  12        -0.00000000
  13         0.00000000
  14        -0.00000000
  15         0.00000000
  16         0.00000000
  17         0.00000000
  18        -0.00000000
  19        -0.00000000
  20        -0.00000000
  21         0.00000000
  22         0.00000000
  23         0.00000000
  24        -0.00000000
  25        -0.00000000
  26        -0.00000000
  27        -0.00000000
  28        -0.00000000
  29         0.00000000
  30         0.00000000
  31         0.00000000
  32        -0.00000000
  33         0.00000000
  34         0.00000000
  35         0.00000000
  36        -0.00000000
  37        -0.00000000
  38        -0.00000000
  39         0.00000000
  40         0.00000000
  41         0.00000000
  42        -0.01200371
  43        -0.00355202
  44        -0.00185860
  45        -0.00028069
  46         0.00079816
  47         0.06137517
  48         0.01816154
  49         0.00950305
  50         0.00143516
  51        -0.00408102
  52        -0.25773036
  53        -0.07626506
  54        -0.03990578
  55        -0.00602659
  56         0.01713728
  57         1.08275679
  58         0.32039883
  59         0.16764906
  60         0.02531845
  61        -0.07199583
Sym=    14a  
Ene=     3.1944
Spin= Alpha
Occup=    0.00000
   1        -0.00000000
   2         0.00000000
   3        -0.00000000
   4         0.00000000
   5        -0.00000000
   6         0.00000000
   7        -0.00000000
   8         0.00000000
   9         0.00000000
  10         0.00000000
  11        -0.00000000
  12         0.00000000
  13        -0.00000000
  14         0.00000000
  15         0.00000000
  16         0.00000000
  17        -0.00000000
  18        -0.00000000
  19        -0.00000000
  20         0.00000000
  21         0.00000000
  22         0.00000000
  23        -0.00000000
  24        -0.00000000
  25        -0.00000000
  26         0.00000000
  27        -0.00000000
  28        -0.00000000
  29        -0.00000000
  30         0.00000000
  31         0.00000000
  32         0.00000000
  33         0.00000000
  34         0.00000000
  35        -0.00000000
  36        -0.00000000
  37        -0.00000000
  38         0.00000000
  39         0.00000000
  40         0.00000000
  41        -0.00000000
  42         0.00034063
  43         0.00303064
  44        -0.00684409
  45        -0.01019326
  46        -0.00091180
  47        -0.00174166
  48        -0.01549572
  49         0.03499393
  50         0.05211828
  51         0.00466205
  52         0.00731369
  53         0.06507057
  54        -0.14694865
  55        -0.21885825
  56        -0.01957718
  57        -0.03072569
  58        -0.27336944
  59         0.61734928
  60         0.91945029
  61         0.08224614
Sym=    15a  
Ene=     3.2531
Spin= Alpha
Occup=    0.00000
   1         0.00000084
   2        -0.00001028
   3         0.00007377
   4        -0.00039248
   5         0.00180259
   6        -0.00666983
   7         0.02721713
   8        -0.07101487
   9         0.27049077
  10        -0.54994268
  11         1.72983815
  12        -4.32662228
  13         4.39372017
  14        -1.39586747
  15        -0.00000000
  16        -0.00000000
  17        -0.00000000
  18         0.00000000
  19         0.00000000
  20         0.00000000
  21        -0.00000000
  22        -0.00000000
  23        -0.00000000
  24         0.00000000
  25        -0.00000000
  26         0.00000000
  27        -0.00000000
  28         0.00000000
  29        -0.00000000
  30         0.00000000
  31        -0.00000000
  32         0.00000000
  33        -0.00000000
  34         0.00000000
  35        -0.00000000
  36         0.00000000
  37        -0.00000000
  38         0.00000000
  39        -0.00000000
  40        -0.00000000
  41        -0.00000000
  42         0.00000000
  43         0.00000000
  44         0.00000000
  45         0.00000000
  46        -0.00000000
  47        -0.00000000
  48        -0.00000000
  49        -0.00000000
  50        -0.00000000
  51         0.00000000
  52         0.00000000
  53         0.00000000
  54         0.00000000
  55         0.00000000
  56        -0.00000000
  57        -0.00000000
  58        -0.00000000
  59        -0.00000000
  60        -0.00000000
  61         0.00000000
Sym=    16a  
Ene=     3.2725
Spin= Alpha
Occup=    0.00000
   1        -0.00000000
   2        -0.00000000
   3        -0.00000000
   4        -0.00000000
   5        -0.00000000
   6        -0.00000000
   7        -0.00000000
   8        -0.00000000
   9        -0.00000000
  10        -0.00000000
  11         0.00000000
  12         0.00000000
  13         0.00000000
  14        -0.00000000
  15        -0.00000000
  16         0.00048206
  17         0.00000000
  18         0.00000000
  19        -0.00432606
  20        -0.00000000
  21        -0.00000000
  22         0.02112083
  23         0.00000000
  24         0.00000000
  25        -0.07873550
  26         0.00000000
  27         0.00000000
  28         0.26110420
  29        -0.00000000
  30        -0.00000000
  31        -0.83986870
  32         0.00000000
  33        -0.00000000
  34         2.70051420
  35        -0.00000000
  36         0.00000000
  37        -2.09522173
  38        -0.00000000
  39        -0.00000000
  40         0.62439656
  41         0.00000000
  42        -0.00000000
  43         0.00000000
  44        -0.00000000
  45        -0.00000000
  46         0.00000000
  47        -0.00000000
  48        -0.00000000
  49         0.00000000
  50         0.00000000
  51        -0.00000000
  52        -0.00000000
  53         0.00000000
  54        -0.00000000
  55         0.00000000
  56        -0.00000000
  57        -0.00000000
  58        -0.00000000
  59        -0.00000000
  60        -0.00000000
  61         0.00000000
Sym=    17a  
Ene=     3.2725
Spin= Alpha
Occup=    0.00000
   1        -0.00000000
   2        -0.00000000
   3        -0.00000000
   4        -0.00000000
   5        -0.00000000
   6        -0.00000000
   7        -0.00000000
   8        -0.00000000
   9        -0.00000000
  10        -0.00000000
  11         0.00000000
  12         0.00000000
  13         0.00000000
  14        -0.00000000
  15         0.00048206
  16        -0.00000000
  17         0.00000000
  18        -0.00432606
  19         0.00000000
  20        -0.00000000
  21         0.02112083
  22        -0.00000000
  23         0.00000000
  24        -0.07873550
  25         0.00000000
  26         0.00000000
  27         0.26110420
  28         0.00000000
  29        -0.00000000
  30        -0.83986870
  31        -0.00000000
  32         0.00000000
  33         2.70051420
  34        -0.00000000
  35        -0.00000000
  36        -2.09522173
  37         0.00000000
  38        -0.00000000
  39         0.62439656
  40        -0.00000000
  41         0.00000000
  42        -0.00000000
  43         0.00000000
  44        -0.00000000
  45        -0.00000000
  46         0.00000000
  47        -0.00000000
  48        -0.00000000
  49         0.00000000
  50         0.00000000
  51        -0.00000000
  52        -0.00000000
  53         0.00000000
  54        -0.00000000
  55         0.00000000
  56        -0.00000000
  57        -0.00000000
  58        -0.00000000
  59        -0.00000000
  60        -0.00000000
  61         0.00000000
Sym=    18a  
Ene=     3.2725
Spin= Alpha
Occup=    0.00000
   1         0.00000000
   2        -0.00000000
   3         0.00000000
   4        -0.00000000
   5         0.00000000
   6        -0.00000000
   7         0.00000000
   8        -0.00000000
   9         0.00000000
  10        -0.00000000
  11         0.00000000
  12        -0.00000000
  13         0.00000000
  14        -0.00000000
  15        -0.00000000
  16        -0.00000000
  17         0.00048206
  18         0.00000000
  19         0.00000000
  20        -0.00432606
  21        -0.00000000
  22         0.00000000
  23         0.02112083
  24         0.00000000
  25        -0.00000000
  26        -0.07873550
  27        -0.00000000
  28         0.00000000
  29         0.26110420
  30         0.00000000
  31        -0.00000000
  32        -0.83986870
  33        -0.00000000
  34         0.00000000
  35         2.70051420
  36        -0.00000000
  37        -0.00000000
  38        -2.09522173
  39         0.00000000
  40        -0.00000000
  41         0.62439656
  42         0.00000000
  43         0.00000000
  44         0.00000000
  45         0.00000000
  46        -0.00000000
  47        -0.00000000
  48        -0.00000000
  49        -0.00000000
  50        -0.00000000
  51         0.00000000
  52         0.00000000
  53         0.00000000
  54         0.00000000
  55         0.00000000
  56        -0.00000000
  57        -0.00000000
  58        -0.00000000
  59        -0.00000000
  60        -0.00000000
  61         0.00000000
Sym=    19a  
Ene=     3.6948
Spin= Alpha
Occup=    0.00000
   1         0.00000000
   2        -0.00000000
   3         0.00000000
   4        -0.00000000
   5         0.00000000
   6        -0.00000000
   7         0.00000000
   8        -0.00000000
   9         0.00000000
  10        -0.00000000
  11         0.00000000
  12        -0.00000000
  13         0.00000000
  14        -0.00000000
  15         0.00000000
  16         0.00000000
  17         0.00000000
  18        -0.00000000
  19        -0.00000000
  20        -0.00000000
  21         0.00000000
  22         0.00000000
  23         0.00000000
  24         0.00000000
  25         0.00000000
  26        -0.00000000
  27        -0.00000000
  28        -0.00000000
  29         0.00000000
  30         0.00000000
  31         0.00000000
  32        -0.00000000
  33         0.00000000
  34         0.00000000
  35         0.00000000
  36        -0.00000000
  37        -0.00000000
  38        -0.00000000
  39         0.00000000
  40         0.00000000
  41         0.00000000
  42         0.03007252
  43        -0.00416998
  44         0.00081593
  45         0.00109794
  46         0.03824563
  47        -0.16862804
  48         0.02338264
  49        -0.00457523
  50        -0.00615654
  51        -0.21445778
  52         0.90295271
  53        -0.12520704
  54         0.02449901
  55         0.03296645
  56         1.14835726
  57        -0.42973611
  58         0.05958893
  59        -0.01165965
  60        -0.01568950
  61        -0.54652983
Sym=    20a  
Ene=     3.6948
Spin= Alpha
Occup=    0.00000
   1        -0.00000000
   2        -0.00000000
   3         0.00000000
   4        -0.00000000
   5         0.00000000
   6        -0.00000000
   7         0.00000000
   8         0.00000000
   9        -0.00000000
  10         0.00000000
  11        -0.00000000
  12         0.00000000
  13        -0.00000000
  14         0.00000000
  15         0.00000000
  16         0.00000000
  17         0.00000000
  18        -0.00000000
  19        -0.00000000
  20        -0.00000000
  21         0.00000000
  22         0.00000000
  23         0.00000000
  24        -0.00000000
  25         0.00000000
  26        -0.00000000
  27         0.00000000
  28        -0.00000000
  29         0.00000000
  30         0.00000000
  31         0.00000000
  32        -0.00000000
  33        -0.00000000
  34        -0.00000000
  35         0.00000000
  36        -0.00000000
  37         0.00000000
  38        -0.00000000
  39         0.00000000
  40         0.00000000
  41         0.00000000
  42         0.00483777
  43         0.01050938
  44         0.03307231
  45         0.03376303
  46        -0.00433290
  47        -0.02712722
  48        -0.05893009
  49        -0.18544900
  50        -0.18932211
  51         0.02429621
  52         0.14525813
  53         0.31555297
  54         0.99302392
  55         1.01376325
  56        -0.13009893
  57        -0.06913171
  58        -0.15017897
  59        -0.47260309
  60        -0.48247342
  61         0.06191709
Sym=    21a  
Ene=     3.6948
Spin= Alpha
Occup=    0.00000
   1         0.00000000
   2        -0.00000000
   3         0.00000000
   4        -0.00000000
   5         0.00000000
   6        -0.00000000
   7         0.00000000
   8         0.00000000
   9         0.00000000
  10        -0.00000000
  11         0.00000000
  12        -0.00000000
  13         0.00000000
  14        -0.00000000
  15         0.00000000
  16         0.00000000
  17        -0.00000000
  18        -0.00000000
  19        -0.00000000
  20         0.00000000
  21         0.00000000
  22         0.00000000
  23        -0.00000000
  24        -0.00000000
  25        -0.00000000
  26         0.00000000
  27        -0.00000000
  28        -0.00000000
  29        -0.00000000
  30         0.00000000
  31         0.00000000
  32         0.00000000
  33         0.00000000
  34         0.00000000
  35        -0.00000000
  36        -0.00000000
  37        -0.00000000
  38         0.00000000
  39         0.00000000
  40         0.00000000
  41         0.00000000
  42        -0.00401077
  43         0.04675048
  44        -0.01014078
  45        -0.00294648
  46         0.00855186
  47         0.02248988
  48        -0.26214767
  49         0.05686320
  50         0.01652202
  51        -0.04795354
  52        -0.12042659
  53         1.40372236
  54        -0.30448542
  55        -0.08847048
  56         0.25677687
  57         0.05731380
  58        -0.66806399
  59         0.14491167
  60         0.04210515
  61        -0.12220606
Sym=    22a  
Ene=     3.6948
Spin= Alpha
Occup=    0.00000
   1         0.00000000
   2        -0.00000000
   3         0.00000000
   4        -0.00000000
   5         0.00000000
   6        -0.00000000
   7         0.00000000
   8         0.00000000
   9        -0.00000000
  10         0.00000000
  11        -0.00000000
  12         0.00000000
  13        -0.00000000
  14         0.00000000
  15        -0.00000000
  16        -0.00000000
  17         0.00000000
  18         0.00000000
  19         0.00000000
  20        -0.00000000
  21        -0.00000000
  22        -0.00000000
  23         0.00000000
  24         0.00000000
  25         0.00000000
  26        -0.00000000
  27         0.00000000
  28         0.00000000
  29         0.00000000
  30        -0.00000000
  31        -0.00000000
  32        -0.00000000
  33        -0.00000000
  34        -0.00000000
  35         0.00000000
  36         0.00000000
  37         0.00000000
  38        -0.00000000
  39        -0.00000000
  40        -0.00000000
  41        -0.00000000
  42         0.03780695
  43         0.00734840
  44        -0.00266134
  45        -0.00877025
  46        -0.02861783
  47        -0.21199793
  48        -0.04120527
  49         0.01492312
  50         0.04917811
  51         0.16047105
  52         1.13518550
  53         0.22064188
  54        -0.07990886
  55        -0.26333407
  56        -0.85927443
  57        -0.54026108
  58        -0.10500858
  59         0.03803048
  60         0.12532679
  61         0.40894861
Sym=    23a  
Ene=     3.6948
Spin= Alpha
Occup=    0.00000
   1         0.00000000
   2        -0.00000000
   3         0.00000000
   4        -0.00000000
   5         0.00000000
   6        -0.00000000
   7         0.00000000
   8        -0.00000000
   9        -0.00000000
  10         0.00000000
  11        -0.00000000
  12         0.00000000
  13        -0.00000000
  14         0.00000000
  15        -0.00000000
  16        -0.00000000
  17         0.00000000
  18         0.00000000
  19         0.00000000
  20        -0.00000000
  21        -0.00000000
  22        -0.00000000
  23         0.00000000
  24         0.00000000
  25         0.00000000
  26        -0.00000000
  27         0.00000000
  28         0.00000000
  29         0.00000000
  30        -0.00000000
  31        -0.00000000
  32        -0.00000000
  33        -0.00000000
  34        -0.00000000
  35        -0.00000000
  36         0.00000000
  37         0.00000000
  38        -0.00000000
  39        -0.00000000
  40        -0.00000000
  41        -0.00000000
  42         0.00362387
  43        -0.00434776
  44        -0.03437998
  45         0.03405288
  46        -0.00356760
  47        -0.02032042
  48         0.02437952
  49         0.19278162
  50        -0.19094741
  51         0.02000489
  52         0.10880978
  53        -0.13054501
  54        -1.03228788
  55         1.02246623
  56        -0.10712022
  57        -0.05178509
  58         0.06212940
  59         0.49128972
  60        -0.48661537
  61         0.05098100
Sym=    24a  
Ene=     3.6998
Spin= Alpha
Occup=    0.00000
   1         0.00000000
   2        -0.00000000
   3         0.00000000
   4        -0.00000000
   5        -0.00000000
   6        -0.00000000
   7        -0.00000000
   8         0.00000000
   9        -0.00000000
  10         0.00000000
  11        -0.00000000
  12         0.00000000
  13        -0.00000000
  14         0.00000000
  15         0.00000000
  16         0.00000000
  17        -0.00131252
  18        -0.00000000
  19        -0.00000000
  20         0.01186021
  21         0.00000000
  22         0.00000000
  23        -0.05879218
  24        -0.00000000
  25        -0.00000000
  26         0.22666064
  27        -0.00000000
  28        -0.00000000
  29        -0.80632728
  30         0.00000000
  31         0.00000000
  32         2.90007643
  33         0.00000000
  34         0.00000000
  35        -2.83517965
  36        -0.00000000
  37        -0.00000000
  38         1.40373043
  39         0.00000000
  40         0.00000000
  41        -0.36341970
  42         0.00000000
  43        -0.00000000
  44         0.00000000
  45         0.00000000
  46         0.00000000
  47        -0.00000000
  48         0.00000000
  49        -0.00000000
  50        -0.00000000
  51        -0.00000000
  52         0.00000000
  53        -0.00000000
  54         0.00000000
  55         0.00000000
  56         0.00000000
  57        -0.00000000
  58         0.00000000
  59        -0.00000000
  60        -0.00000000
  61        -0.00000000
Sym=    25a  
Ene=     3.6998
Spin= Alpha
Occup=    0.00000
   1        -0.00000000
   2        -0.00000000
   3        -0.00000000
   4        -0.00000000
   5        -0.00000000
   6        -0.00000000
   7        -0.00000000
   8        -0.00000000
   9        -0.00000000
  10        -0.00000000
  11         0.00000000
  12         0.00000000
  13         0.00000000
  14        -0.00000000
  15        -0.00000000
  16        -0.00131252
  17         0.00000000
  18         0.00000000
  19         0.01186021
  20        -0.00000000
  21        -0.00000000
  22        -0.05879218
  23         0.00000000
  24         0.00000000
  25         0.22666064
  26         0.00000000
  27         0.00000000
  28        -0.80632728
  29        -0.00000000
  30        -0.00000000
  31         2.90007643
  32         0.00000000
  33        -0.00000000
  34        -2.83517965
  35        -0.00000000
  36         0.00000000
  37         1.40373043
  38        -0.00000000
  39        -0.00000000
  40        -0.36341970
  41         0.00000000
  42        -0.00000000
  43         0.00000000
  44        -0.00000000
  45        -0.00000000
  46         0.00000000
  47        -0.00000000
  48        -0.00000000
  49         0.00000000
  50         0.00000000
  51        -0.00000000
  52        -0.00000000
  53         0.00000000
  54        -0.00000000
  55         0.00000000
  56        -0.00000000
  57        -0.00000000
  58        -0.00000000
  59        -0.00000000
  60        -0.00000000
  61         0.00000000
Sym=    26a  
Ene=     3.6998
Spin= Alpha
Occup=    0.00000
   1        -0.00000000
   2        -0.00000000
   3        -0.00000000
   4        -0.00000000
   5        -0.00000000
   6        -0.00000000
   7        -0.00000000
   8        -0.00000000
   9        -0.00000000
  10        -0.00000000
  11         0.00000000
  12         0.00000000
  13         0.00000000
  14        -0.00000000
  15        -0.00131252
  16        -0.00000000
  17         0.00000000
  18         0.01186021
  19         0.00000000
  20        -0.00000000
  21        -0.05879218
  22        -0.00000000
  23         0.00000000
  24         0.22666064
  25         0.00000000
  26         0.00000000
  27        -0.80632728
  28         0.00000000
  29        -0.00000000
  30         2.90007643
  31        -0.00000000
  32         0.00000000
  33        -2.83517965
  34        -0.00000000
  35        -0.00000000
  36         1.40373043
  37         0.00000000
  38        -0.00000000
  39        -0.36341970
  40        -0.00000000
  41         0.00000000
  42        -0.00000000
  43         0.00000000
  44        -0.00000000
  45        -0.00000000
  46         0.00000000
  47        -0.00000000
  48        -0.00000000
  49         0.00000000
  50         0.00000000
  51        -0.00000000
  52        -0.00000000
  53         0.00000000
  54        -0.00000000
  55         0.00000000
  56        -0.00000000
  57        -0.00000000
  58        -0.00000000
  59        -0.00000000
  60        -0.00000000
  61         0.00000000
Sym=    27a  
Ene=     4.0174
Spin= Alpha
Occup=    0.00000
   1        -0.00000312
   2         0.00003816
   3        -0.00027217
   4         0.00147493
   5        -0.00647656
   6         0.02693248
   7        -0.08826627
   8         0.34651040
   9        -0.82689443
  10         3.10302411
  11        -6.31403838
  12         5.86482819
  13        -2.70708030
  14         0.67238491
  15        -0.00000000
  16        -0.00000000
  17         0.00000000
  18         0.00000000
  19         0.00000000
  20        -0.00000000
  21        -0.00000000
  22        -0.00000000
  23         0.00000000
  24        -0.00000000
  25        -0.00000000
  26        -0.00000000
  27         0.00000000
  28         0.00000000
  29         0.00000000
  30        -0.00000000
  31        -0.00000000
  32        -0.00000000
  33        -0.00000000
  34        -0.00000000
  35         0.00000000
  36         0.00000000
  37         0.00000000
  38         0.00000000
  39        -0.00000000
  40        -0.00000000
  41        -0.00000000
  42         0.00000000
  43        -0.00000000
  44         0.00000000
  45         0.00000000
  46         0.00000000
  47        -0.00000000
  48         0.00000000
  49        -0.00000000
  50        -0.00000000
  51        -0.00000000
  52         0.00000000
  53        -0.00000000
  54         0.00000000
  55         0.00000000
  56         0.00000000
  57        -0.00000000
  58         0.00000000
  59         0.00000000
  60        -0.00000000
  61        -0.00000000
Sym=    28a  
Ene=     4.7411
Spin= Alpha
Occup=    0.00000
   1         0.00000000
   2        -0.00000000
   3         0.00000000
   4        -0.00000000
   5        -0.00000000
   6        -0.00000000
   7        -0.00000000
   8        -0.00000000
   9         0.00000000
  10        -0.00000000
  11         0.00000000
  12        -0.00000000
  13         0.00000000
  14        -0.00000000
  15        -0.00000000
  16        -0.00000000
  17         0.00365297
  18         0.00000000
  19         0.00000000
  20        -0.03355060
  21        -0.00000000
  22        -0.00000000
  23         0.17223192
  24         0.00000000
  25         0.00000000
  26        -0.71464487
  27         0.00000000
  28         0.00000000
  29         2.86764427
  30        -0.00000000
  31        -0.00000000
  32        -3.05078464
  33        -0.00000000
  34         0.00000000
  35         1.90124666
  36         0.00000000
  37         0.00000000
  38        -0.82579696
  39        -0.00000000
  40        -0.00000000
  41         0.21096474
  42        -0.00000000
  43         0.00000000
  44         0.00000000
  45        -0.00000000
  46         0.00000000
  47         0.00000000
  48        -0.00000000
  49        -0.00000000
  50        -0.00000000
  51        -0.00000000
  52        -0.00000000
  53         0.00000000
  54         0.00000000
  55         0.00000000
  56         0.00000000
  57         0.00000000
  58        -0.00000000
  59        -0.00000000
  60        -0.00000000
  61        -0.00000000
Sym=    29a  
Ene=     4.7411
Spin= Alpha
Occup=    0.00000
   1         0.00000000
   2         0.00000000
   3         0.00000000
   4         0.00000000
   5         0.00000000
   6         0.00000000
   7         0.00000000
   8         0.00000000
   9         0.00000000
  10         0.00000000
  11        -0.00000000
  12        -0.00000000
  13        -0.00000000
  14         0.00000000
  15         0.00000000
  16         0.00365297
  17        -0.00000000
  18        -0.00000000
  19        -0.03355060
  20         0.00000000
  21         0.00000000
  22         0.17223192
  23        -0.00000000
  24        -0.00000000
  25        -0.71464487
  26        -0.00000000
  27        -0.00000000
  28         2.86764427
  29         0.00000000
  30         0.00000000
  31        -3.05078464
  32        -0.00000000
  33         0.00000000
  34         1.90124666
  35         0.00000000
  36        -0.00000000
  37        -0.82579696
  38         0.00000000
  39         0.00000000
  40         0.21096474
  41        -0.00000000
  42         0.00000000
  43        -0.00000000
  44         0.00000000
  45         0.00000000
  46        -0.00000000
  47         0.00000000
  48         0.00000000
  49        -0.00000000
  50        -0.00000000
  51         0.00000000
  52         0.00000000
  53        -0.00000000
  54         0.00000000
  55        -0.00000000
  56         0.00000000
  57         0.00000000
  58         0.00000000
  59         0.00000000
  60         0.00000000
  61        -0.00000000
Sym=    30a  
Ene=     4.7411
Spin= Alpha
Occup=    0.00000
   1         0.00000000
   2         0.00000000
   3         0.00000000
   4         0.00000000
   5         0.00000000
   6         0.00000000
   7         0.00000000
   8         0.00000000
   9         0.00000000
  10         0.00000000
  11        -0.00000000
  12        -0.00000000
  13        -0.00000000
  14         0.00000000
  15         0.00365297
  16         0.00000000
  17        -0.00000000
  18        -0.03355060
  19        -0.00000000
  20         0.00000000
  21         0.17223192
  22         0.00000000
  23        -0.00000000
  24        -0.71464487
  25        -0.00000000
  26        -0.00000000
  27         2.86764427
  28        -0.00000000
  29         0.00000000
  30        -3.05078464
  31         0.00000000
  32        -0.00000000
  33         1.90124666
  34         0.00000000
  35         0.00000000
  36        -0.82579696
  37        -0.00000000
  38         0.00000000
  39         0.21096474
  40         0.00000000
  41        -0.00000000
  42         0.00000000
  43        -0.00000000
  44         0.00000000
  45         0.00000000
  46        -0.00000000
  47         0.00000000
  48         0.00000000
  49        -0.00000000
  50        -0.00000000
  51         0.00000000
  52         0.00000000
  53        -0.00000000
  54         0.00000000
  55        -0.00000000
  56         0.00000000
  57         0.00000000
  58         0.00000000
  59         0.00000000
  60         0.00000000
  61        -0.00000000
Sym=    31a  
Ene=     5.1102
Spin= Alpha
Occup=    0.00000
   1         0.00000000
   2        -0.00000000
   3         0.00000000
   4        -0.00000000
   5         0.00000000
   6        -0.00000000
   7         0.00000000
   8         0.00000000
   9        -0.00000000
  10         0.00000000
  11        -0.00000000
  12         0.00000000
  13        -0.00000000
  14         0.00000000
  15         0.00000000
  16         0.00000000
  17        -0.00000000
  18        -0.00000000
  19        -0.00000000
  20         0.00000000
  21         0.00000000
  22         0.00000000
  23        -0.00000000
  24        -0.00000000
  25        -0.00000000
  26         0.00000000
  27        -0.00000000
  28        -0.00000000
  29        -0.00000000
  30         0.00000000
  31         0.00000000
  32         0.00000000
  33         0.00000000
  34         0.00000000
  35        -0.00000000
  36        -0.00000000
  37        -0.00000000
  38         0.00000000
  39         0.00000000
  40         0.00000000
  41         0.00000000
  42        -0.00064828
  43         0.06243996
  44        -0.19757707
  45        -0.01854552
  46         0.04011109
  47         0.00466513
  48        -0.44933154
  49         1.42180750
  50         0.13345761
  51        -0.28864808
  52        -0.00307401
  53         0.29607977
  54        -0.93687710
  55        -0.08793974
  56         0.19019999
  57         0.00104123
  58        -0.10028795
  59         0.31733842
  60         0.02978689
  61        -0.06442442
Sym=    32a  
Ene=     5.1102
Spin= Alpha
Occup=    0.00000
   1        -0.00000000
   2         0.00000000
   3        -0.00000000
   4        -0.00000000
   5         0.00000000
   6        -0.00000000
   7         0.00000000
   8        -0.00000000
   9         0.00000000
  10        -0.00000000
  11         0.00000000
  12        -0.00000000
  13         0.00000000
  14        -0.00000000
  15        -0.00000000
  16        -0.00000000
  17         0.00000000
  18         0.00000000
  19         0.00000000
  20        -0.00000000
  21        -0.00000000
  22        -0.00000000
  23         0.00000000
  24         0.00000000
  25         0.00000000
  26        -0.00000000
  27         0.00000000
  28         0.00000000
  29         0.00000000
  30        -0.00000000
  31        -0.00000000
  32        -0.00000000
  33        -0.00000000
  34        -0.00000000
  35         0.00000000
  36         0.00000000
  37         0.00000000
  38        -0.00000000
  39        -0.00000000
  40        -0.00000000
  41        -0.00000000
  42        -0.00222630
  43        -0.08096976
  44        -0.06028125
  45         0.15866797
  46        -0.09756174
  47         0.01602093
  48         0.58267597
  49         0.43379697
  50        -1.14180915
  51         0.70207542
  52        -0.01055673
  53        -0.38394492
  54        -0.28584351
  55         0.75237671
  56        -0.46262127
  57         0.00357577
  58         0.13004958
  59         0.09682073
  60        -0.25484457
  61         0.15669879
Sym=    33a  
Ene=     5.1102
Spin= Alpha
Occup=    0.00000
   1         0.00000000
   2         0.00000000
   3        -0.00000000
   4         0.00000000
   5        -0.00000000
   6        -0.00000000
   7         0.00000000
   8        -0.00000000
   9         0.00000000
  10        -0.00000000
  11         0.00000000
  12        -0.00000000
  13         0.00000000
  14        -0.00000000
  15        -0.00000000
  16        -0.00000000
  17         0.00000000
  18         0.00000000
  19         0.00000000
  20        -0.00000000
  21        -0.00000000
  22        -0.00000000
  23         0.00000000
  24         0.00000000
  25         0.00000000
  26        -0.00000000
  27         0.00000000
  28         0.00000000
  29         0.00000000
  30        -0.00000000
  31        -0.00000000
  32        -0.00000000
  33        -0.00000000
  34        -0.00000000
  35         0.00000000
  36         0.00000000
  37         0.00000000
  38        -0.00000000
  39        -0.00000000
  40        -0.00000000
  41        -0.00000000
  42         0.00642300
  43        -0.16182963
  44        -0.04706354
  45        -0.12289195
  46        -0.03662256
  47        -0.04622131
  48         1.16456116
  49         0.33867942
  50         0.88435715
  51         0.26354389
  52         0.03045678
  53        -0.76736878
  54        -0.22316734
  55        -0.58273287
  56        -0.17365799
  57        -0.01031630
  58         0.25992267
  59         0.07559110
  60         0.19738291
  61         0.05882133
Sym=    34a  
Ene=     5.1102
Spin= Alpha
Occup=    0.00000
   1         0.00000000
   2        -0.00000000
   3        -0.00000000
   4        -0.00000000
   5         0.00000000
   6        -0.00000000
   7         0.00000000
   8        -0.00000000
   9         0.00000000
  10        -0.00000000
  11         0.00000000
  12        -0.00000000
  13         0.00000000
  14        -0.00000000
  15         0.00000000
  16         0.00000000
  17         0.00000000
  18        -0.00000000
  19        -0.00000000
  20        -0.00000000
  21         0.00000000
  22         0.00000000
  23         0.00000000
  24        -0.00000000
  25        -0.00000000
  26        -0.00000000
  27        -0.00000000
  28        -0.00000000
  29         0.00000000
  30         0.00000000
  31         0.00000000
  32        -0.00000000
  33         0.00000000
  34         0.00000000
  35         0.00000000
  36        -0.00000000
  37        -0.00000000
  38        -0.00000000
  39         0.00000000
  40         0.00000000
  41         0.00000000
  42        -0.01797410
  43         0.09001474
  44        -0.00178829
  45        -0.06532051
  46        -0.17942412
  47         0.12934553
  48        -0.64776557
  49         0.01286889
  50         0.47006059
  51         1.29117494
  52        -0.08523015
  53         0.42683467
  54        -0.00847975
  55        -0.30973884
  56        -0.85079889
  57         0.02886910
  58        -0.14457717
  59         0.00287225
  60         0.10491455
  61         0.28818206
Sym=    35a  
Ene=     5.1102
Spin= Alpha
Occup=    0.00000
   1         0.00000000
   2         0.00000000
   3         0.00000000
   4        -0.00000000
   5        -0.00000000
   6        -0.00000000
   7         0.00000000
   8        -0.00000000
   9         0.00000000
  10        -0.00000000
  11         0.00000000
  12        -0.00000000
  13        -0.00000000
  14         0.00000000
  15         0.00000000
  16        -0.00000000
  17        -0.00000000
  18        -0.00000000
  19         0.00000000
  20         0.00000000
  21         0.00000000
  22        -0.00000000
  23        -0.00000000
  24        -0.00000000
  25         0.00000000
  26         0.00000000
  27         0.00000000
  28        -0.00000000
  29        -0.00000000
  30        -0.00000000
  31         0.00000000
  32         0.00000000
  33        -0.00000000
  34         0.00000000
  35         0.00000000
  36         0.00000000
  37        -0.00000000
  38        -0.00000000
  39        -0.00000000
  40         0.00000000
  41         0.00000000
  42        -0.21099527
  43        -0.01193193
  44        -0.00003724
  45         0.00020627
  46         0.01507597
  47         1.51836777
  48         0.08586477
  49         0.00026800
  50        -0.00148439
  51        -0.10848997
  52        -1.00050394
  53        -0.05657920
  54        -0.00017660
  55         0.00097811
  56         0.07148772
  57         0.33889006
  58         0.01916447
  59         0.00005982
  60        -0.00033131
  61        -0.02421427
Sym=    36a  
Ene=     6.3185
Spin= Alpha
Occup=    0.00000
   1        -0.00001030
   2         0.00012570
   3        -0.00090143
   4         0.00482914
   5        -0.02207602
   6         0.08541283
   7        -0.34226696
   8         1.05918656
   9        -4.16269315
  10         7.45102311
  11        -6.29223008
  12         3.36801230
  13        -1.47485426
  14         0.34587223
  15        -0.00000000
  16        -0.00000000
  17         0.00000000
  18         0.00000000
  19         0.00000000
  20        -0.00000000
  21        -0.00000000
  22        -0.00000000
  23         0.00000000
  24         0.00000000
  25         0.00000000
  26        -0.00000000
  27         0.00000000
  28         0.00000000
  29         0.00000000
  30        -0.00000000
  31        -0.00000000
  32        -0.00000000
  33        -0.00000000
  34        -0.00000000
  35         0.00000000
  36         0.00000000
  37         0.00000000
  38        -0.00000000
  39        -0.00000000
  40        -0.00000000
  41         0.00000000
  42        -0.00000000
  43        -0.00000000
  44         0.00000000
  45        -0.00000000
  46         0.00000000
  47         0.00000000
  48         0.00000000
  49        -0.00000000
  50        -0.00000000
  51        -0.00000000
  52         0.00000000
  53        -0.00000000
  54         0.00000000
  55         0.00000000
  56         0.00000000
  57        -0.00000000
  58         0.00000000
  59        -0.00000000
  60        -0.00000000
  61        -0.00000000
Sym=    37a  
Ene=     7.3443
Spin= Alpha
Occup=    0.00000
   1         0.00000000
   2        -0.00000000
   3         0.00000000
   4        -0.00000000
   5         0.00000000
   6        -0.00000000
   7         0.00000000
   8        -0.00000000
   9         0.00000000
  10        -0.00000000
  11         0.00000000
  12        -0.00000000
  13        -0.00000000
  14         0.00000000
  15         0.00000000
  16         0.00000000
  17        -0.01060309
  18        -0.00000000
  19        -0.00000000
  20         0.10127846
  21         0.00000000
  22         0.00000000
  23        -0.56339860
  24        -0.00000000
  25        -0.00000000
  26         2.67993504
  27        -0.00000000
  28        -0.00000000
  29        -2.96408760
  30         0.00000000
  31         0.00000000
  32         2.01107460
  33         0.00000000
  34         0.00000000
  35        -1.10320054
  36        -0.00000000
  37        -0.00000000
  38         0.47313604
  39         0.00000000
  40         0.00000000
  41        -0.12253614
  42         0.00000000
  43        -0.00000000
  44         0.00000000
  45         0.00000000
  46        -0.00000000
  47        -0.00000000
  48        -0.00000000
  49        -0.00000000
  50        -0.00000000
  51         0.00000000
  52        -0.00000000
  53         0.00000000
  54         0.00000000
  55         0.00000000
  56        -0.00000000
  57        -0.00000000
  58        -0.00000000
  59        -0.00000000
  60        -0.00000000
  61         0.00000000
Sym=    38a  
Ene=     7.3443
Spin= Alpha
Occup=    0.00000
   1        -0.00000000
   2        -0.00000000
   3        -0.00000000
   4        -0.00000000
   5        -0.00000000
   6        -0.00000000
   7        -0.00000000
   8        -0.00000000
   9        -0.00000000
  10        -0.00000000
  11         0.00000000
  12         0.00000000
  13         0.00000000
  14        -0.00000000
  15        -0.00000000
  16        -0.01060309
  17         0.00000000
  18         0.00000000
  19         0.10127846
  20        -0.00000000
  21        -0.00000000
  22        -0.56339860
  23         0.00000000
  24         0.00000000
  25         2.67993504
  26         0.00000000
  27         0.00000000
  28        -2.96408760
  29        -0.00000000
  30        -0.00000000
  31         2.01107460
  32         0.00000000
  33        -0.00000000
  34        -1.10320054
  35        -0.00000000
  36         0.00000000
  37         0.47313604
  38        -0.00000000
  39        -0.00000000
  40        -0.12253614
  41         0.00000000
  42        -0.00000000
  43         0.00000000
  44        -0.00000000
  45        -0.00000000
  46         0.00000000
  47        -0.00000000
  48        -0.00000000
  49         0.00000000
  50         0.00000000
  51        -0.00000000
  52        -0.00000000
  53         0.00000000
  54        -0.00000000
  55         0.00000000
  56        -0.00000000
  57        -0.00000000
  58        -0.00000000
  59        -0.00000000
  60        -0.00000000
  61         0.00000000
Sym=    39a  
Ene=     7.3443
Spin= Alpha
Occup=    0.00000
   1        -0.00000000
   2        -0.00000000
   3        -0.00000000
   4        -0.00000000
   5        -0.00000000
   6        -0.00000000
   7        -0.00000000
   8        -0.00000000
   9        -0.00000000
  10        -0.00000000
  11         0.00000000
  12         0.00000000
  13         0.00000000
  14        -0.00000000
  15        -0.01060309
  16        -0.00000000
  17         0.00000000
  18         0.10127846
  19         0.00000000
  20        -0.00000000
  21        -0.56339860
  22        -0.00000000
  23         0.00000000
  24         2.67993504
  25         0.00000000
  26         0.00000000
  27        -2.96408760
  28         0.00000000
  29        -0.00000000
  30         2.01107460
  31        -0.00000000
  32         0.00000000
  33        -1.10320054
  34        -0.00000000
  35        -0.00000000
  36         0.47313604
  37         0.00000000
  38        -0.00000000
  39        -0.12253614
  40        -0.00000000
  41         0.00000000
  42        -0.00000000
  43         0.00000000
  44        -0.00000000
  45        -0.00000000
  46         0.00000000
  47        -0.00000000
  48        -0.00000000
  49         0.00000000
  50         0.00000000
  51        -0.00000000
  52        -0.00000000
  53         0.00000000
  54        -0.00000000
  55         0.00000000
  56        -0.00000000
  57        -0.00000000
  58        -0.00000000
  59        -0.00000000
  60        -0.00000000
  61         0.00000000
Sym=    40a  
Ene=     9.3895
Spin= Alpha
Occup=    0.00000
   1         0.00000000
   2        -0.00000000
   3         0.00000000
   4        -0.00000000
   5         0.00000000
   6        -0.00000000
   7        -0.00000000
   8         0.00000000
   9        -0.00000000
  10         0.00000000
  11         0.00000000
  12        -0.00000000
  13         0.00000000
  14        -0.00000000
  15         0.00000000
  16         0.00000000
  17        -0.00000000
  18        -0.00000000
  19        -0.00000000
  20         0.00000000
  21         0.00000000
  22         0.00000000
  23        -0.00000000
  24        -0.00000000
  25        -0.00000000
  26         0.00000000
  27        -0.00000000
  28        -0.00000000
  29        -0.00000000
  30         0.00000000
  31         0.00000000
  32         0.00000000
  33         0.00000000
  34         0.00000000
  35        -0.00000000
  36        -0.00000000
  37        -0.00000000
  38         0.00000000
  39         0.00000000
  40         0.00000000
  41        -0.00000000
  42         0.06023933
  43         0.26008945
  44         0.93751046
  45         0.07439399
  46         0.96629345
  47        -0.04513333
  48        -0.19486776
  49        -0.70241433
  50        -0.05573848
  51        -0.72397951
  52         0.02099793
  53         0.09066069
  54         0.32679273
  55         0.02593189
  56         0.33682576
  57        -0.00690768
  58        -0.02982462
  59        -0.10750493
  60        -0.00853081
  61        -0.11080549
Sym=    41a  
Ene=     9.3895
Spin= Alpha
Occup=    0.00000
   1         0.00000000
   2         0.00000000
   3        -0.00000000
   4         0.00000000
   5         0.00000000
   6         0.00000000
   7        -0.00000000
   8         0.00000000
   9        -0.00000000
  10        -0.00000000
  11         0.00000000
  12        -0.00000000
  13         0.00000000
  14        -0.00000000
  15         0.00000000
  16         0.00000000
  17        -0.00000000
  18        -0.00000000
  19        -0.00000000
  20         0.00000000
  21         0.00000000
  22         0.00000000
  23        -0.00000000
  24        -0.00000000
  25        -0.00000000
  26         0.00000000
  27        -0.00000000
  28        -0.00000000
  29        -0.00000000
  30         0.00000000
  31         0.00000000
  32         0.00000000
  33         0.00000000
  34         0.00000000
  35        -0.00000000
  36        -0.00000000
  37        -0.00000000
  38         0.00000000
  39         0.00000000
  40         0.00000000
  41         0.00000000
  42         0.09455001
  43         1.28151319
  44        -0.17289749
  45        -0.43114133
  46        -0.14988838
  47        -0.07084004
  48        -0.96015273
  49         0.12954061
  50         0.32302557
  51         0.11230141
  52         0.03295777
  53         0.44670348
  54        -0.06026775
  55        -0.15028510
  56        -0.05224735
  57        -0.01084211
  58        -0.14695194
  59         0.01982627
  60         0.04943925
  61         0.01718780
Sym=    42a  
Ene=     9.3895
Spin= Alpha
Occup=    0.00000
   1         0.00000000
   2         0.00000000
   3         0.00000000
   4        -0.00000000
   5         0.00000000
   6        -0.00000000
   7        -0.00000000
   8         0.00000000
   9        -0.00000000
  10         0.00000000
  11        -0.00000000
  12         0.00000000
  13         0.00000000
  14        -0.00000000
  15        -0.00000000
  16        -0.00000000
  17        -0.00000000
  18         0.00000000
  19         0.00000000
  20         0.00000000
  21        -0.00000000
  22        -0.00000000
  23        -0.00000000
  24         0.00000000
  25         0.00000000
  26         0.00000000
  27        -0.00000000
  28         0.00000000
  29        -0.00000000
  30         0.00000000
  31        -0.00000000
  32         0.00000000
  33        -0.00000000
  34        -0.00000000
  35         0.00000000
  36         0.00000000
  37         0.00000000
  38        -0.00000000
  39        -0.00000000
  40        -0.00000000
  41        -0.00000000
  42         1.36934847
  43        -0.09711479
  44        -0.00000669
  45         0.03311609
  46        -0.06176951
  47        -1.02596188
  48         0.07276166
  49         0.00000501
  50        -0.02481169
  51         0.04627979
  52         0.47732067
  53        -0.03385179
  54        -0.00000233
  55         0.01154344
  56        -0.02153131
  57        -0.15702407
  58         0.01113621
  59         0.00000077
  60        -0.00379744
  61         0.00708315
Sym=    43a  
Ene=     9.3895
Spin= Alpha
Occup=    0.00000
   1        -0.00000000
   2         0.00000000
   3        -0.00000000
   4         0.00000000
   5         0.00000000
   6         0.00000000
   7        -0.00000000
   8         0.00000000
   9        -0.00000000
  10         0.00000000
  11        -0.00000000
  12         0.00000000
  13        -0.00000000
  14        -0.00000000
  15         0.00000000
  16         0.00000000
  17        -0.00000000
  18        -0.00000000
  19        -0.00000000
  20         0.00000000
  21         0.00000000
  22         0.00000000
  23        -0.00000000
  24        -0.00000000
  25        -0.00000000
  26         0.00000000
  27        -0.00000000
  28        -0.00000000
  29        -0.00000000
  30         0.00000000
  31         0.00000000
  32         0.00000000
  33         0.00000000
  34         0.00000000
  35        -0.00000000
  36        -0.00000000
  37        -0.00000000
  38         0.00000000
  39         0.00000000
  40         0.00000000
  41        -0.00000000
  42        -0.01169776
  43         0.41174676
  44         0.00331166
  45         1.29399944
  46        -0.21293410
  47         0.00876436
  48        -0.30849450
  49        -0.00248120
  50        -0.96950785
  51         0.15953738
  52        -0.00407755
  53         0.14352463
  54         0.00115436
  55         0.45105588
  56        -0.07422351
  57         0.00134139
  58        -0.04721526
  59        -0.00037975
  60        -0.14838374
  61         0.02441729
Sym=    44a  
Ene=     9.3895
Spin= Alpha
Occup=    0.00000
   1        -0.00000000
   2         0.00000000
   3        -0.00000000
   4         0.00000000
   5        -0.00000000
   6         0.00000000
   7        -0.00000000
   8         0.00000000
   9         0.00000000
  10        -0.00000000
  11         0.00000000
  12        -0.00000000
  13         0.00000000
  14        -0.00000000
  15         0.00000000
  16         0.00000000
  17         0.00000000
  18        -0.00000000
  19        -0.00000000
  20        -0.00000000
  21         0.00000000
  22         0.00000000
  23         0.00000000
  24        -0.00000000
  25        -0.00000000
  26        -0.00000000
  27        -0.00000000
  28        -0.00000000
  29         0.00000000
  30         0.00000000
  31         0.00000000
  32        -0.00000000
  33         0.00000000
  34         0.00000000
  35         0.00000000
  36        -0.00000000
  37        -0.00000000
  38        -0.00000000
  39         0.00000000
  40         0.00000000
  41        -0.00000000
  42         0.04047359
  43         0.02386264
  44        -0.99026678
  45         0.15003378
  46         0.94027268
  47        -0.03032417
  48        -0.01787869
  49         0.74194114
  50        -0.11241034
  51        -0.70448388
  52         0.01410808
  53         0.00831792
  54        -0.34518226
  55         0.05229803
  56         0.32775557
  57        -0.00464113
  58        -0.00273634
  59         0.11355453
  60        -0.01720447
  61        -0.10782167
Sym=    45a  
Ene=    12.8840
Spin= Alpha
Occup=    0.00000
   1        -0.00003184
   2         0.00038927
   3        -0.00278704
   4         0.01514506
   5        -0.06843987
   6         0.28946314
   7        -1.09416058
   8         4.64562049
   9        -7.43007364
  10         6.06933503
  11        -3.65924898
  12         1.90124559
  13        -0.75232773
  14         0.18542812
  15         0.00000000
  16         0.00000000
  17        -0.00000000
  18        -0.00000000
  19        -0.00000000
  20         0.00000000
  21         0.00000000
  22         0.00000000
  23        -0.00000000
  24        -0.00000000
  25        -0.00000000
  26         0.00000000
  27        -0.00000000
  28        -0.00000000
  29         0.00000000
  30         0.00000000
  31         0.00000000
  32        -0.00000000
  33         0.00000000
  34         0.00000000
  35         0.00000000
  36        -0.00000000
  37        -0.00000000
  38        -0.00000000
  39         0.00000000
  40         0.00000000
  41         0.00000000
  42        -0.00000000
  43         0.00000000
  44        -0.00000000
  45        -0.00000000
  46        -0.00000000
  47         0.00000000
  48        -0.00000000
  49         0.00000000
  50         0.00000000
  51         0.00000000
  52        -0.00000000
  53         0.00000000
  54        -0.00000000
  55        -0.00000000
  56        -0.00000000
  57         0.00000000
  58        -0.00000000
  59         0.00000000
  60         0.00000000
  61         0.00000000
Sym=    46a  
Ene=    14.1670
Spin= Alpha
Occup=    0.00000
   1        -0.00000000
   2         0.00000000
   3        -0.00000000
   4         0.00000000
   5        -0.00000000
   6         0.00000000
   7        -0.00000000
   8         0.00000000
   9        -0.00000000
  10         0.00000000
  11        -0.00000000
  12         0.00000000
  13        -0.00000000
  14         0.00000000
  15         0.00000000
  16         0.00000000
  17         0.03357444
  18        -0.00000000
  19        -0.00000000
  20        -0.35409953
  21         0.00000000
  22         0.00000000
  23         2.34081123
  24        -0.00000000
  25        -0.00000000
  26        -2.65216097
  27        -0.00000000
  28        -0.00000000
  29         1.88060307
  30         0.00000000
  31         0.00000000
  32        -1.13288768
  33         0.00000000
  34         0.00000000
  35         0.61595319
  36        -0.00000000
  37        -0.00000000
  38        -0.26753668
  39         0.00000000
  40         0.00000000
  41         0.07014175
  42         0.00000000
  43        -0.00000000
  44        -0.00000000
  45         0.00000000
  46        -0.00000000
  47         0.00000000
  48         0.00000000
  49         0.00000000
  50        -0.00000000
  51         0.00000000
  52         0.00000000
  53        -0.00000000
  54        -0.00000000
  55        -0.00000000
  56         0.00000000
  57         0.00000000
  58         0.00000000
  59         0.00000000
  60         0.00000000
  61        -0.00000000
Sym=    47a  
Ene=    14.1670
Spin= Alpha
Occup=    0.00000
   1        -0.00000000
   2        -0.00000000
   3        -0.00000000
   4        -0.00000000
   5        -0.00000000
   6        -0.00000000
   7        -0.00000000
   8        -0.00000000
   9        -0.00000000
  10        -0.00000000
  11         0.00000000
  12         0.00000000
  13         0.00000000
  14        -0.00000000
  15        -0.00000000
  16         0.03357444
  17         0.00000000
  18         0.00000000
  19        -0.35409953
  20        -0.00000000
  21        -0.00000000
  22         2.34081123
  23         0.00000000
  24         0.00000000
  25        -2.65216097
  26         0.00000000
  27         0.00000000
  28         1.88060307
  29        -0.00000000
  30        -0.00000000
  31        -1.13288768
  32         0.00000000
  33        -0.00000000
  34         0.61595319
  35        -0.00000000
  36         0.00000000
  37        -0.26753668
  38        -0.00000000
  39        -0.00000000
  40         0.07014175
  41         0.00000000
  42        -0.00000000
  43         0.00000000
  44        -0.00000000
  45        -0.00000000
  46         0.00000000
  47        -0.00000000
  48        -0.00000000
  49         0.00000000
  50         0.00000000
  51        -0.00000000
  52        -0.00000000
  53         0.00000000
  54        -0.00000000
  55         0.00000000
  56        -0.00000000
  57        -0.00000000
  58        -0.00000000
  59        -0.00000000
  60        -0.00000000
  61         0.00000000
Sym=    48a  
Ene=    14.1670
Spin= Alpha
Occup=    0.00000
   1        -0.00000000
   2        -0.00000000
   3        -0.00000000
   4        -0.00000000
   5        -0.00000000
   6        -0.00000000
   7        -0.00000000
   8        -0.00000000
   9        -0.00000000
  10        -0.00000000
  11         0.00000000
  12         0.00000000
  13         0.00000000
  14        -0.00000000
  15         0.03357444
  16        -0.00000000
  17         0.00000000
  18        -0.35409953
  19         0.00000000
  20        -0.00000000
  21         2.34081123
  22        -0.00000000
  23         0.00000000
  24        -2.65216097
  25         0.00000000
  26         0.00000000
  27         1.88060307
  28         0.00000000
  29        -0.00000000
  30        -1.13288768
  31        -0.00000000
  32         0.00000000
  33         0.61595319
  34        -0.00000000
  35        -0.00000000
  36        -0.26753668
  37         0.00000000
  38        -0.00000000
  39         0.07014175
  40        -0.00000000
  41         0.00000000
  42        -0.00000000
  43         0.00000000
  44        -0.00000000
  45        -0.00000000
  46         0.00000000
  47        -0.00000000
  48        -0.00000000
  49         0.00000000
  50         0.00000000
  51        -0.00000000
  52        -0.00000000
  53         0.00000000
  54        -0.00000000
  55         0.00000000
  56        -0.00000000
  57        -0.00000000
  58        -0.00000000
  59        -0.00000000
  60        -0.00000000
  61         0.00000000
Sym=    49a  
Ene=    30.3470
Spin= Alpha
Occup=    0.00000
   1         0.00009356
   2        -0.00114433
   3         0.00824429
   4        -0.04510529
   5         0.21348181
   6        -0.93439822
   7         4.27789601
   8        -6.47899864
   9         5.35192290
  10        -3.53891294
  11         2.02346601
  12        -0.98634899
  13         0.43243963
  14        -0.10356282
  15        -0.00000000
  16        -0.00000000
  17        -0.00000000
  18         0.00000000
  19         0.00000000
  20         0.00000000
  21        -0.00000000
  22        -0.00000000
  23         0.00000000
  24         0.00000000
  25         0.00000000
  26        -0.00000000
  27         0.00000000
  28         0.00000000
  29         0.00000000
  30        -0.00000000
  31        -0.00000000
  32        -0.00000000
  33        -0.00000000
  34        -0.00000000
  35         0.00000000
  36         0.00000000
  37         0.00000000
  38        -0.00000000
  39        -0.00000000
  40        -0.00000000
  41         0.00000000
  42        -0.00000000
  43         0.00000000
  44         0.00000000
  45         0.00000000
  46         0.00000000
  47        -0.00000000
  48        -0.00000000
  49         0.00000000
  50        -0.00000000
  51        -0.00000000
  52        -0.00000000
  53         0.00000000
  54        -0.00000000
  55         0.00000000
  56        -0.00000000
  57        -0.00000000
  58        -0.00000000
  59         0.00000000
  60        -0.00000000
  61        -0.00000000
Sym=    50a  
Ene=    34.0240
Spin= Alpha
Occup=    0.00000
   1        -0.00000000
   2        -0.00000000
   3        -0.00000000
   4         0.00000000
   5        -0.00000000
   6         0.00000000
   7        -0.00000000
   8         0.00000000
   9        -0.00000000
  10         0.00000000
  11         0.00000000
  12         0.00000000
  13         0.00000000
  14        -0.00000000
  15        -0.00000000
  16        -0.00000000
  17        -0.13266498
  18         0.00000000
  19         0.00000000
  20         1.84676789
  21        -0.00000000
  22        -0.00000000
  23        -2.08590579
  24         0.00000000
  25         0.00000000
  26         1.54451447
  27         0.00000000
  28         0.00000000
  29        -0.99148580
  30        -0.00000000
  31        -0.00000000
  32         0.59665165
  33        -0.00000000
  34        -0.00000000
  35        -0.32928619
  36         0.00000000
  37         0.00000000
  38         0.14465487
  39        -0.00000000
  40        -0.00000000
  41        -0.03819989
  42        -0.00000000
  43         0.00000000
  44         0.00000000
  45        -0.00000000
  46         0.00000000
  47        -0.00000000
  48        -0.00000000
  49        -0.00000000
  50         0.00000000
  51        -0.00000000
  52        -0.00000000
  53         0.00000000
  54         0.00000000
  55         0.00000000
  56        -0.00000000
  57        -0.00000000
  58        -0.00000000
  59        -0.00000000
  60        -0.00000000
  61         0.00000000
Sym=    51a  
Ene=    34.0240
Spin= Alpha
Occup=    0.00000
   1         0.00000000
   2         0.00000000
   3         0.00000000
   4         0.00000000
   5         0.00000000
   6         0.00000000
   7         0.00000000
   8         0.00000000
   9         0.00000000
  10         0.00000000
  11        -0.00000000
  12        -0.00000000
  13        -0.00000000
  14         0.00000000
  15         0.00000000
  16        -0.13266498
  17        -0.00000000
  18        -0.00000000
  19         1.84676789
  20         0.00000000
  21         0.00000000
  22        -2.08590579
  23        -0.00000000
  24        -0.00000000
  25         1.54451447
  26        -0.00000000
  27        -0.00000000
  28        -0.99148580
  29         0.00000000
  30         0.00000000
  31         0.59665165
  32        -0.00000000
  33         0.00000000
  34        -0.32928619
  35         0.00000000
  36        -0.00000000
  37         0.14465487
  38         0.00000000
  39         0.00000000
  40        -0.03819989
  41        -0.00000000
  42         0.00000000
  43        -0.00000000
  44         0.00000000
  45         0.00000000
  46        -0.00000000
  47         0.00000000
  48         0.00000000
  49        -0.00000000
  50        -0.00000000
  51         0.00000000
  52         0.00000000
  53        -0.00000000
  54         0.00000000
  55        -0.00000000
  56         0.00000000
  57         0.00000000
  58         0.00000000
  59         0.00000000
  60         0.00000000
  61        -0.00000000
Sym=    52a  
Ene=    34.0240
Spin= Alpha
Occup=    0.00000
   1         0.00000000
   2         0.00000000
   3         0.00000000
   4         0.00000000
   5         0.00000000
   6         0.00000000
   7         0.00000000
   8         0.00000000
   9         0.00000000
  10         0.00000000
  11        -0.00000000
  12        -0.00000000
  13        -0.00000000
  14         0.00000000
  15        -0.13266498
  16         0.00000000
  17        -0.00000000
  18         1.84676789
  19        -0.00000000
  20         0.00000000
  21        -2.08590579
  22         0.00000000
  23        -0.00000000
  24         1.54451447
  25        -0.00000000
  26        -0.00000000
  27        -0.99148580
  28        -0.00000000
  29         0.00000000
  30         0.59665165
  31         0.00000000
  32        -0.00000000
  33        -0.32928619
  34         0.00000000
  35         0.00000000
  36         0.14465487
  37        -0.00000000
  38         0.00000000
  39        -0.03819989
  40         0.00000000
  41        -0.00000000
  42         0.00000000
  43        -0.00000000
  44         0.00000000
  45         0.00000000
  46        -0.00000000
  47         0.00000000
  48         0.00000000
  49        -0.00000000
  50        -0.00000000
  51         0.00000000
  52         0.00000000
  53        -0.00000000
  54         0.00000000
  55        -0.00000000
  56         0.00000000
  57         0.00000000
  58         0.00000000
  59         0.00000000
  60         0.00000000
  61        -0.00000000
