[MOLDEN FORMAT]
[N_ATOMS]
                    1
[ATOMS] (AU)
BE          1      4           0.00000000      0.00000000      0.00000000
[5D]
[CHARGE] (MULLIKEN)
   0.0000000000000000     
[GTO] (AU)
   1
   s   1
  0.226964848E+05  0.100000000E+01
   s   1
  0.338243505E+04  0.100000000E+01
   s   1
  0.762631451E+03  0.100000000E+01
   s   1
  0.212375701E+03  0.100000000E+01
   s   1
  0.674251384E+02  0.100000000E+01
   s   1
  0.234422935E+02  0.100000000E+01
   s   1
  0.874753712E+01  0.100000000E+01
   s   1
  0.347849527E+01  0.100000000E+01
   s   1
  0.145650043E+01  0.100000000E+01
   s   1
  0.610440845E+00  0.100000000E+01
   s   1
  0.258459058E+00  0.100000000E+01
   s   1
  0.104488528E+00  0.100000000E+01
   s   1
  0.425542810E-01  0.100000000E+01
   s   1
  0.148935470E-01  0.100000000E+01
   p   1
  0.337101840E+02  0.100000000E+01
   p   1
  0.805764950E+01  0.100000000E+01
   p   1
  0.283647140E+01  0.100000000E+01
   p   1
  0.109996570E+01  0.100000000E+01
   p   1
  0.443396400E+00  0.100000000E+01
   p   1
  0.182226400E+00  0.100000000E+01
   p   1
  0.757241000E-01  0.100000000E+01
   p   1
  0.316854000E-01  0.100000000E+01
   p   1
  0.110899000E-01  0.100000000E+01
   d   1
  0.140000000E+01  0.100000000E+01
   d   1
  0.490000000E+00  0.100000000E+01
   d   1
  0.171500000E+00  0.100000000E+01
   d   1
  0.600250000E-01  0.100000000E+01
 
[MO]
Sym=     1a  
Ene=    -4.7332
Spin= Alpha
Occup=    2.00000
   1         0.00008420
   2         0.00045851
   3         0.00227719
   4         0.00961250
   5         0.03482280
   6         0.10577693
   7         0.24525928
   8         0.38590913
   9         0.31134128
  10         0.06477687
  11        -0.00228016
  12        -0.00050428
  13        -0.00088649
  14         0.00012565
  15         0.00000000
  16        -0.00000000
  17         0.00000000
  18        -0.00000000
  19        -0.00000000
  20        -0.00000000
  21         0.00000000
  22        -0.00000000
  23        -0.00000000
  24        -0.00000000
  25        -0.00000000
  26         0.00000000
  27         0.00000000
  28        -0.00000000
  29        -0.00000000
  30         0.00000000
  31        -0.00000000
  32         0.00000000
  33        -0.00000000
  34        -0.00000000
  35        -0.00000000
  36         0.00000000
  37        -0.00000000
  38        -0.00000000
  39        -0.00000000
  40        -0.00000000
  41         0.00000000
  42        -0.00000000
  43        -0.00000000
  44        -0.00000000
  45         0.00000000
  46        -0.00000000
  47         0.00000000
  48         0.00000000
  49         0.00000000
  50        -0.00000000
  51         0.00000000
  52        -0.00000000
  53         0.00000000
  54         0.00000000
  55         0.00000000
  56         0.00000000
  57         0.00000000
  58         0.00000000
  59        -0.00000000
  60        -0.00000000
  61        -0.00000000
Sym=     2a  
Ene=    -0.3093
Spin= Alpha
Occup=    2.00000
   1        -0.00001586
   2        -0.00008611
   3        -0.00042916
   4        -0.00181697
   5        -0.00666237
   6        -0.02087521
   7        -0.05188255
   8        -0.09827295
   9        -0.13559677
  10        -0.06491244
  11         0.31079892
  12         0.62734668
  13         0.21260183
  14        -0.00405414
  15         0.00000000
  16        -0.00000000
  17        -0.00000000
  18        -0.00000000
  19        -0.00000000
  20         0.00000000
  21         0.00000000
  22        -0.00000000
  23        -0.00000000
  24        -0.00000000
  25        -0.00000000
  26         0.00000000
  27         0.00000000
  28        -0.00000000
  29        -0.00000000
  30         0.00000000
  31        -0.00000000
  32         0.00000000
  33        -0.00000000
  34        -0.00000000
  35        -0.00000000
  36         0.00000000
  37        -0.00000000
  38         0.00000000
  39        -0.00000000
  40        -0.00000000
  41         0.00000000
  42        -0.00000000
  43         0.00000000
  44        -0.00000000
  45         0.00000000
  46        -0.00000000
  47        -0.00000000
  48        -0.00000000
  49         0.00000000
  50        -0.00000000
  51         0.00000000
  52         0.00000000
  53         0.00000000
  54        -0.00000000
  55         0.00000000
  56         0.00000000
  57        -0.00000000
  58        -0.00000000
  59        -0.00000000
  60        -0.00000000
  61        -0.00000000
Sym=     3a  
Ene=     3.0243
Spin= Alpha
Occup=    0.00000
   1        -0.00000000
   2        -0.00000000
   3        -0.00000000
   4        -0.00000000
   5        -0.00000000
   6        -0.00000000
   7        -0.00000000
   8        -0.00000000
   9        -0.00000000
  10         0.00000000
  11        -0.00000000
  12        -0.00000000
  13        -0.00000000
  14         0.00000000
  15         0.00000000
  16        -0.00000000
  17         0.00005414
  18        -0.00000000
  19         0.00000000
  20        -0.00048381
  21         0.00000000
  22        -0.00000000
  23         0.00233991
  24        -0.00000000
  25         0.00000000
  26        -0.00853733
  27         0.00000000
  28        -0.00000000
  29         0.02698798
  30         0.00000000
  31        -0.00000000
  32        -0.07842331
  33        -0.00000000
  34        -0.00000000
  35         0.21105341
  36         0.00000000
  37        -0.00000000
  38        -0.48537986
  39        -0.00000000
  40        -0.00000000
  41         1.25839548
  42         0.00000000
  43        -0.00000000
  44         0.00000000
  45        -0.00000000
  46         0.00000000
  47        -0.00000000
  48         0.00000000
  49        -0.00000000
  50         0.00000000
  51        -0.00000000
  52         0.00000000
  53        -0.00000000
  54         0.00000000
  55        -0.00000000
  56        -0.00000000
  57         0.00000000
  58         0.00000000
  59         0.00000000
  60         0.00000000
  61         0.00000000
Sym=     4a  
Ene=     3.0243
Spin= Alpha
Occup=    0.00000
   1         0.00000000
   2         0.00000000
   3         0.00000000
   4         0.00000000
   5         0.00000000
   6         0.00000000
   7         0.00000000
   8         0.00000000
   9         0.00000000
  10         0.00000000
  11         0.00000000
  12         0.00000000
  13         0.00000000
  14        -0.00000000
  15        -0.00000000
  16         0.00005414
  17         0.00000000
  18         0.00000000
  19        -0.00048381
  20         0.00000000
  21        -0.00000000
  22         0.00233991
  23        -0.00000000
  24         0.00000000
  25        -0.00853733
  26         0.00000000
  27        -0.00000000
  28         0.02698798
  29        -0.00000000
  30         0.00000000
  31        -0.07842331
  32         0.00000000
  33         0.00000000
  34         0.21105341
  35        -0.00000000
  36        -0.00000000
  37        -0.48537986
  38         0.00000000
  39         0.00000000
  40         1.25839548
  41         0.00000000
  42        -0.00000000
  43        -0.00000000
  44        -0.00000000
  45         0.00000000
  46        -0.00000000
  47         0.00000000
  48        -0.00000000
  49         0.00000000
  50        -0.00000000
  51         0.00000000
  52        -0.00000000
  53         0.00000000
  54         0.00000000
  55         0.00000000
  56         0.00000000
  57         0.00000000
  58        -0.00000000
  59        -0.00000000
  60        -0.00000000
  61        -0.00000000
Sym=     5a  
Ene=     3.0243
Spin= Alpha
Occup=    0.00000
   1        -0.00000000
   2        -0.00000000
   3        -0.00000000
   4        -0.00000000
   5        -0.00000000
   6        -0.00000000
   7        -0.00000000
   8        -0.00000000
   9        -0.00000000
  10        -0.00000000
  11         0.00000000
  12         0.00000000
  13         0.00000000
  14        -0.00000000
  15         0.00005414
  16        -0.00000000
  17        -0.00000000
  18        -0.00048381
  19        -0.00000000
  20         0.00000000
  21         0.00233991
  22        -0.00000000
  23        -0.00000000
  24        -0.00853733
  25        -0.00000000
  26         0.00000000
  27         0.02698798
  28        -0.00000000
  29        -0.00000000
  30        -0.07842331
  31        -0.00000000
  32         0.00000000
  33         0.21105341
  34        -0.00000000
  35        -0.00000000
  36        -0.48537986
  37        -0.00000000
  38         0.00000000
  39         1.25839548
  40        -0.00000000
  41         0.00000000
  42        -0.00000000
  43         0.00000000
  44        -0.00000000
  45         0.00000000
  46        -0.00000000
  47         0.00000000
  48        -0.00000000
  49         0.00000000
  50        -0.00000000
  51         0.00000000
  52        -0.00000000
  53         0.00000000
  54        -0.00000000
  55         0.00000000
  56         0.00000000
  57        -0.00000000
  58        -0.00000000
  59        -0.00000000
  60        -0.00000000
  61        -0.00000000
Sym=     6a  
Ene=     3.0386
Spin= Alpha
Occup=    0.00000
   1        -0.00000018
   2         0.00000216
   3        -0.00001534
   4         0.00008352
   5        -0.00036041
   6         0.00154297
   7        -0.00461597
   8         0.01982468
   9        -0.03783103
  10         0.14594620
  11        -0.27939554
  12         0.66883556
  13        -1.83271894
  14         1.93473768
  15        -0.00000000
  16         0.00000000
  17         0.00000000
  18         0.00000000
  19        -0.00000000
  20        -0.00000000
  21        -0.00000000
  22         0.00000000
  23         0.00000000
  24         0.00000000
  25        -0.00000000
  26        -0.00000000
  27        -0.00000000
  28         0.00000000
  29         0.00000000
  30        -0.00000000
  31        -0.00000000
  32        -0.00000000
  33         0.00000000
  34         0.00000000
  35         0.00000000
  36        -0.00000000
  37         0.00000000
  38        -0.00000000
  39         0.00000000
  40        -0.00000000
  41        -0.00000000
  42         0.00000000
  43         0.00000000
  44        -0.00000000
  45         0.00000000
  46         0.00000000
  47        -0.00000000
  48         0.00000000
  49         0.00000000
  50        -0.00000000
  51        -0.00000000
  52         0.00000000
  53        -0.00000000
  54        -0.00000000
  55         0.00000000
  56        -0.00000000
  57         0.00000000
  58         0.00000000
  59         0.00000000
  60        -0.00000000
  61         0.00000000
Sym=     7a  
Ene=     3.0954
Spin= Alpha
Occup=    0.00000
   1         0.00000000
   2         0.00000000
   3         0.00000000
   4         0.00000000
   5         0.00000000
   6         0.00000000
   7         0.00000000
   8         0.00000000
   9         0.00000000
  10         0.00000000
  11        -0.00000000
  12        -0.00000000
  13        -0.00000000
  14         0.00000000
  15         0.00000000
  16         0.00000000
  17        -0.00017520
  18        -0.00000000
  19        -0.00000000
  20         0.00156768
  21         0.00000000
  22         0.00000000
  23        -0.00760347
  24        -0.00000000
  25        -0.00000000
  26         0.02792513
  27         0.00000000
  28         0.00000000
  29        -0.08961760
  30         0.00000000
  31        -0.00000000
  32         0.26936035
  33        -0.00000000
  34         0.00000000
  35        -0.77967746
  36         0.00000000
  37        -0.00000000
  38         2.05621769
  39        -0.00000000
  40        -0.00000000
  41        -1.01234483
  42        -0.00000000
  43        -0.00000000
  44         0.00000000
  45        -0.00000000
  46         0.00000000
  47         0.00000000
  48         0.00000000
  49        -0.00000000
  50         0.00000000
  51        -0.00000000
  52         0.00000000
  53        -0.00000000
  54         0.00000000
  55        -0.00000000
  56        -0.00000000
  57         0.00000000
  58         0.00000000
  59         0.00000000
  60        -0.00000000
  61         0.00000000
Sym=     8a  
Ene=     3.0954
Spin= Alpha
Occup=    0.00000
   1         0.00000000
   2         0.00000000
   3         0.00000000
   4         0.00000000
   5         0.00000000
   6         0.00000000
   7         0.00000000
   8         0.00000000
   9         0.00000000
  10         0.00000000
  11         0.00000000
  12         0.00000000
  13         0.00000000
  14        -0.00000000
  15        -0.00000000
  16        -0.00017520
  17         0.00000000
  18         0.00000000
  19         0.00156768
  20         0.00000000
  21        -0.00000000
  22        -0.00760347
  23        -0.00000000
  24         0.00000000
  25         0.02792513
  26         0.00000000
  27        -0.00000000
  28        -0.08961760
  29        -0.00000000
  30        -0.00000000
  31         0.26936035
  32         0.00000000
  33         0.00000000
  34        -0.77967746
  35        -0.00000000
  36        -0.00000000
  37         2.05621769
  38         0.00000000
  39         0.00000000
  40        -1.01234483
  41         0.00000000
  42        -0.00000000
  43        -0.00000000
  44        -0.00000000
  45         0.00000000
  46        -0.00000000
  47         0.00000000
  48        -0.00000000
  49         0.00000000
  50        -0.00000000
  51         0.00000000
  52        -0.00000000
  53         0.00000000
  54         0.00000000
  55         0.00000000
  56         0.00000000
  57         0.00000000
  58        -0.00000000
  59        -0.00000000
  60        -0.00000000
  61        -0.00000000
Sym=     9a  
Ene=     3.0954
Spin= Alpha
Occup=    0.00000
   1        -0.00000000
   2        -0.00000000
   3        -0.00000000
   4        -0.00000000
   5        -0.00000000
   6        -0.00000000
   7        -0.00000000
   8        -0.00000000
   9        -0.00000000
  10        -0.00000000
  11        -0.00000000
  12        -0.00000000
  13        -0.00000000
  14         0.00000000
  15        -0.00017520
  16         0.00000000
  17        -0.00000000
  18         0.00156768
  19         0.00000000
  20         0.00000000
  21        -0.00760347
  22         0.00000000
  23         0.00000000
  24         0.02792513
  25         0.00000000
  26        -0.00000000
  27        -0.08961760
  28         0.00000000
  29         0.00000000
  30         0.26936035
  31         0.00000000
  32        -0.00000000
  33        -0.77967746
  34         0.00000000
  35         0.00000000
  36         2.05621769
  37         0.00000000
  38        -0.00000000
  39        -1.01234483
  40         0.00000000
  41        -0.00000000
  42         0.00000000
  43         0.00000000
  44         0.00000000
  45        -0.00000000
  46         0.00000000
  47        -0.00000000
  48         0.00000000
  49        -0.00000000
  50         0.00000000
  51        -0.00000000
  52         0.00000000
  53        -0.00000000
  54        -0.00000000
  55        -0.00000000
  56        -0.00000000
  57        -0.00000000
  58         0.00000000
  59         0.00000000
  60         0.00000000
  61         0.00000000
Sym=    10a  
Ene=     3.1944
Spin= Alpha
Occup=    0.00000
   1        -0.00000000
   2         0.00000000
   3        -0.00000000
   4         0.00000000
   5        -0.00000000
   6         0.00000000
   7        -0.00000000
   8         0.00000000
   9        -0.00000000
  10         0.00000000
  11        -0.00000000
  12         0.00000000
  13        -0.00000000
  14         0.00000000
  15        -0.00000000
  16         0.00000000
  17        -0.00000000
  18         0.00000000
  19         0.00000000
  20         0.00000000
  21        -0.00000000
  22         0.00000000
  23         0.00000000
  24         0.00000000
  25        -0.00000000
  26        -0.00000000
  27        -0.00000000
  28         0.00000000
  29         0.00000000
  30        -0.00000000
  31        -0.00000000
  32        -0.00000000
  33         0.00000000
  34         0.00000000
  35         0.00000000
  36        -0.00000000
  37        -0.00000000
  38        -0.00000000
  39         0.00000000
  40         0.00000000
  41        -0.00000000
  42        -0.00000013
  43        -0.00827686
  44        -0.00209754
  45        -0.00937924
  46         0.00000000
  47         0.00000066
  48         0.04231973
  49         0.01072475
  50         0.04795620
  51        -0.00000000
  52        -0.00000278
  53        -0.17771156
  54        -0.04503601
  55        -0.20138057
  56         0.00000000
  57         0.00001169
  58         0.74658801
  59         0.18920180
  60         0.84602442
  61        -0.00000000
Sym=    11a  
Ene=     3.1944
Spin= Alpha
Occup=    0.00000
   1        -0.00000000
   2         0.00000000
   3        -0.00000000
   4         0.00000000
   5        -0.00000000
   6         0.00000000
   7        -0.00000000
   8         0.00000000
   9        -0.00000000
  10         0.00000000
  11        -0.00000000
  12         0.00000000
  13        -0.00000000
  14         0.00000000
  15        -0.00000000
  16         0.00000000
  17        -0.00000000
  18         0.00000000
  19         0.00000000
  20         0.00000000
  21        -0.00000000
  22         0.00000000
  23         0.00000000
  24         0.00000000
  25        -0.00000000
  26        -0.00000000
  27        -0.00000000
  28         0.00000000
  29         0.00000000
  30        -0.00000000
  31        -0.00000000
  32        -0.00000000
  33         0.00000000
  34         0.00000000
  35         0.00000000
  36        -0.00000000
  37        -0.00000000
  38         0.00000000
  39         0.00000000
  40         0.00000000
  41        -0.00000000
  42        -0.00001395
  43        -0.00893530
  44        -0.00287952
  45         0.00852906
  46        -0.00000000
  47         0.00007134
  48         0.04568631
  49         0.01472302
  50        -0.04360923
  51         0.00000000
  52        -0.00029958
  53        -0.19184872
  54        -0.06182581
  55         0.18312652
  56        -0.00000000
  57         0.00125858
  58         0.80597995
  59         0.25973779
  60        -0.76933694
  61         0.00000001
Sym=    12a  
Ene=     3.1944
Spin= Alpha
Occup=    0.00000
   1        -0.00000000
   2         0.00000000
   3         0.00000000
   4        -0.00000000
   5         0.00000000
   6        -0.00000000
   7         0.00000000
   8         0.00000000
   9         0.00000000
  10         0.00000000
  11         0.00000000
  12         0.00000000
  13        -0.00000000
  14         0.00000000
  15        -0.00000000
  16         0.00000000
  17         0.00000000
  18         0.00000000
  19         0.00000000
  20        -0.00000000
  21        -0.00000000
  22         0.00000000
  23         0.00000000
  24         0.00000000
  25         0.00000000
  26        -0.00000000
  27        -0.00000000
  28         0.00000000
  29         0.00000000
  30        -0.00000000
  31         0.00000000
  32        -0.00000000
  33         0.00000000
  34         0.00000000
  35         0.00000000
  36        -0.00000000
  37         0.00000000
  38        -0.00000000
  39         0.00000000
  40         0.00000000
  41        -0.00000000
  42         0.00000003
  43        -0.00000000
  44         0.00000000
  45        -0.00000000
  46        -0.01268370
  47        -0.00000015
  48         0.00000000
  49        -0.00000000
  50         0.00000000
  51         0.06485196
  52         0.00000063
  53        -0.00000000
  54         0.00000000
  55        -0.00000000
  56        -0.27233027
  57        -0.00000265
  58         0.00000000
  59        -0.00000001
  60         0.00000000
  61         1.14409279
Sym=    13a  
Ene=     3.1944
Spin= Alpha
Occup=    0.00000
   1         0.00000000
   2        -0.00000000
   3        -0.00000000
   4        -0.00000000
   5         0.00000000
   6        -0.00000000
   7         0.00000000
   8        -0.00000000
   9         0.00000000
  10        -0.00000000
  11         0.00000000
  12        -0.00000000
  13         0.00000000
  14        -0.00000000
  15         0.00000000
  16        -0.00000000
  17         0.00000000
  18        -0.00000000
  19        -0.00000000
  20        -0.00000000
  21         0.00000000
  22        -0.00000000
  23        -0.00000000
  24        -0.00000000
  25         0.00000000
  26         0.00000000
  27         0.00000000
  28        -0.00000000
  29        -0.00000000
  30         0.00000000
  31         0.00000000
  32         0.00000000
  33        -0.00000000
  34        -0.00000000
  35        -0.00000000
  36         0.00000000
  37         0.00000000
  38        -0.00000000
  39        -0.00000000
  40        -0.00000000
  41         0.00000000
  42         0.00000371
  43         0.00353980
  44        -0.01217312
  45        -0.00040140
  46        -0.00000000
  47        -0.00001897
  48        -0.01809904
  49         0.06224137
  50         0.00205236
  51         0.00000000
  52         0.00007967
  53         0.07600257
  54        -0.26136775
  55        -0.00861838
  56        -0.00000000
  57        -0.00033471
  58        -0.31929610
  59         1.09803791
  60         0.03620686
  61         0.00000001
Sym=    14a  
Ene=     3.1944
Spin= Alpha
Occup=    0.00000
   1         0.00000000
   2        -0.00000000
   3         0.00000000
   4        -0.00000000
   5         0.00000000
   6        -0.00000000
   7         0.00000000
   8        -0.00000000
   9         0.00000000
  10        -0.00000000
  11         0.00000000
  12        -0.00000000
  13        -0.00000000
  14         0.00000000
  15         0.00000000
  16         0.00000000
  17        -0.00000000
  18        -0.00000000
  19        -0.00000000
  20         0.00000000
  21         0.00000000
  22        -0.00000000
  23        -0.00000000
  24        -0.00000000
  25        -0.00000000
  26         0.00000000
  27         0.00000000
  28         0.00000000
  29        -0.00000000
  30        -0.00000000
  31        -0.00000000
  32         0.00000000
  33        -0.00000000
  34         0.00000000
  35        -0.00000000
  36         0.00000000
  37        -0.00000000
  38         0.00000000
  39        -0.00000000
  40        -0.00000000
  41         0.00000000
  42        -0.01268369
  43         0.00001095
  44        -0.00000037
  45        -0.00000940
  46        -0.00000003
  47         0.06485191
  48        -0.00005599
  49         0.00000190
  50         0.00004808
  51         0.00000015
  52        -0.27233009
  53         0.00023510
  54        -0.00000799
  55        -0.00020192
  56        -0.00000063
  57         1.14409205
  58        -0.00098767
  59         0.00003358
  60         0.00084827
  61         0.00000265
Sym=    15a  
Ene=     3.2527
Spin= Alpha
Occup=    0.00000
   1         0.00000084
   2        -0.00001027
   3         0.00007373
   4        -0.00039230
   5         0.00180183
   6        -0.00666643
   7         0.02720752
   8        -0.07097312
   9         0.27038188
  10        -0.54969569
  11         1.72880336
  12        -4.32523366
  13         4.39357728
  14        -1.39613008
  15         0.00000000
  16        -0.00000000
  17         0.00000000
  18        -0.00000000
  19        -0.00000000
  20        -0.00000000
  21         0.00000000
  22        -0.00000000
  23        -0.00000000
  24        -0.00000000
  25         0.00000000
  26         0.00000000
  27         0.00000000
  28        -0.00000000
  29        -0.00000000
  30         0.00000000
  31         0.00000000
  32         0.00000000
  33        -0.00000000
  34        -0.00000000
  35        -0.00000000
  36         0.00000000
  37         0.00000000
  38         0.00000000
  39        -0.00000000
  40        -0.00000000
  41         0.00000000
  42         0.00000000
  43        -0.00000000
  44        -0.00000000
  45         0.00000000
  46         0.00000000
  47        -0.00000000
  48         0.00000000
  49         0.00000000
  50        -0.00000000
  51        -0.00000000
  52         0.00000000
  53        -0.00000000
  54        -0.00000000
  55         0.00000000
  56        -0.00000000
  57         0.00000000
  58         0.00000000
  59         0.00000000
  60        -0.00000000
  61         0.00000000
Sym=    16a  
Ene=     3.2725
Spin= Alpha
Occup=    0.00000
   1        -0.00000000
   2        -0.00000000
   3        -0.00000000
   4        -0.00000000
   5        -0.00000000
   6        -0.00000000
   7        -0.00000000
   8        -0.00000000
   9        -0.00000000
  10        -0.00000000
  11         0.00000000
  12         0.00000000
  13         0.00000000
  14        -0.00000000
  15        -0.00000000
  16         0.00000000
  17         0.00048206
  18         0.00000000
  19         0.00000000
  20        -0.00432606
  21        -0.00000000
  22         0.00000000
  23         0.02112083
  24         0.00000000
  25         0.00000000
  26        -0.07873550
  27        -0.00000000
  28         0.00000000
  29         0.26110420
  30        -0.00000000
  31         0.00000000
  32        -0.83986870
  33         0.00000000
  34         0.00000000
  35         2.70051420
  36        -0.00000000
  37         0.00000000
  38        -2.09522173
  39         0.00000000
  40         0.00000000
  41         0.62439656
  42        -0.00000000
  43         0.00000000
  44        -0.00000000
  45         0.00000000
  46        -0.00000000
  47        -0.00000000
  48        -0.00000000
  49         0.00000000
  50        -0.00000000
  51         0.00000000
  52        -0.00000000
  53         0.00000000
  54        -0.00000000
  55         0.00000000
  56         0.00000000
  57        -0.00000000
  58        -0.00000000
  59        -0.00000000
  60        -0.00000000
  61        -0.00000000
Sym=    17a  
Ene=     3.2725
Spin= Alpha
Occup=    0.00000
   1         0.00000000
   2         0.00000000
   3         0.00000000
   4         0.00000000
   5         0.00000000
   6         0.00000000
   7         0.00000000
   8         0.00000000
   9         0.00000000
  10         0.00000000
  11         0.00000000
  12         0.00000000
  13         0.00000000
  14        -0.00000000
  15        -0.00000000
  16         0.00048206
  17         0.00000000
  18         0.00000000
  19        -0.00432606
  20         0.00000000
  21        -0.00000000
  22         0.02112083
  23        -0.00000000
  24         0.00000000
  25        -0.07873550
  26         0.00000000
  27        -0.00000000
  28         0.26110420
  29        -0.00000000
  30        -0.00000000
  31        -0.83986870
  32         0.00000000
  33         0.00000000
  34         2.70051420
  35        -0.00000000
  36        -0.00000000
  37        -2.09522173
  38         0.00000000
  39         0.00000000
  40         0.62439656
  41         0.00000000
  42        -0.00000000
  43        -0.00000000
  44        -0.00000000
  45         0.00000000
  46        -0.00000000
  47         0.00000000
  48        -0.00000000
  49         0.00000000
  50        -0.00000000
  51         0.00000000
  52        -0.00000000
  53         0.00000000
  54         0.00000000
  55         0.00000000
  56         0.00000000
  57         0.00000000
  58        -0.00000000
  59        -0.00000000
  60        -0.00000000
  61        -0.00000000
Sym=    18a  
Ene=     3.2725
Spin= Alpha
Occup=    0.00000
   1         0.00000000
   2         0.00000000
   3         0.00000000
   4         0.00000000
   5         0.00000000
   6         0.00000000
   7         0.00000000
   8         0.00000000
   9         0.00000000
  10         0.00000000
  11         0.00000000
  12         0.00000000
  13         0.00000000
  14        -0.00000000
  15         0.00048206
  16        -0.00000000
  17         0.00000000
  18        -0.00432606
  19        -0.00000000
  20         0.00000000
  21         0.02112083
  22        -0.00000000
  23        -0.00000000
  24        -0.07873550
  25        -0.00000000
  26         0.00000000
  27         0.26110420
  28        -0.00000000
  29        -0.00000000
  30        -0.83986870
  31        -0.00000000
  32         0.00000000
  33         2.70051420
  34        -0.00000000
  35        -0.00000000
  36        -2.09522173
  37        -0.00000000
  38         0.00000000
  39         0.62439656
  40        -0.00000000
  41         0.00000000
  42        -0.00000000
  43        -0.00000000
  44        -0.00000000
  45         0.00000000
  46        -0.00000000
  47         0.00000000
  48        -0.00000000
  49         0.00000000
  50        -0.00000000
  51         0.00000000
  52        -0.00000000
  53         0.00000000
  54         0.00000000
  55         0.00000000
  56         0.00000000
  57         0.00000000
  58        -0.00000000
  59        -0.00000000
  60        -0.00000000
  61        -0.00000000
Sym=    19a  
Ene=     3.6948
Spin= Alpha
Occup=    0.00000
   1        -0.00000000
   2         0.00000000
   3        -0.00000000
   4         0.00000000
   5        -0.00000000
   6         0.00000000
   7        -0.00000000
   8         0.00000000
   9        -0.00000000
  10         0.00000000
  11        -0.00000000
  12         0.00000000
  13        -0.00000000
  14         0.00000000
  15        -0.00000000
  16         0.00000000
  17        -0.00000000
  18         0.00000000
  19         0.00000000
  20        -0.00000000
  21        -0.00000000
  22         0.00000000
  23         0.00000000
  24         0.00000000
  25        -0.00000000
  26        -0.00000000
  27        -0.00000000
  28         0.00000000
  29         0.00000000
  30         0.00000000
  31         0.00000000
  32        -0.00000000
  33         0.00000000
  34         0.00000000
  35         0.00000000
  36        -0.00000000
  37         0.00000000
  38        -0.00000000
  39         0.00000000
  40         0.00000000
  41        -0.00000000
  42         0.04885023
  43         0.00000638
  44         0.00000679
  45         0.00000175
  46        -0.00000016
  47        -0.27392177
  48        -0.00003576
  49        -0.00003808
  50        -0.00000979
  51         0.00000088
  52         1.46676913
  53         0.00019150
  54         0.00020391
  55         0.00005240
  56        -0.00000469
  57        -0.69806942
  58        -0.00009114
  59        -0.00009705
  60        -0.00002494
  61         0.00000223
Sym=    20a  
Ene=     3.6948
Spin= Alpha
Occup=    0.00000
   1        -0.00000000
   2         0.00000000
   3         0.00000000
   4         0.00000000
   5        -0.00000000
   6         0.00000000
   7         0.00000000
   8        -0.00000000
   9         0.00000000
  10        -0.00000000
  11        -0.00000000
  12         0.00000000
  13        -0.00000000
  14        -0.00000000
  15         0.00000000
  16        -0.00000000
  17        -0.00000000
  18        -0.00000000
  19        -0.00000000
  20         0.00000000
  21         0.00000000
  22        -0.00000000
  23        -0.00000000
  24        -0.00000000
  25        -0.00000000
  26         0.00000000
  27         0.00000000
  28        -0.00000000
  29        -0.00000000
  30         0.00000000
  31        -0.00000000
  32         0.00000000
  33        -0.00000000
  34        -0.00000000
  35        -0.00000000
  36         0.00000000
  37        -0.00000000
  38         0.00000000
  39        -0.00000000
  40        -0.00000000
  41         0.00000000
  42        -0.00000845
  43         0.02863063
  44         0.02633068
  45         0.02955211
  46         0.00000000
  47         0.00004741
  48        -0.16054282
  49        -0.14764613
  50        -0.16570987
  51        -0.00000000
  52        -0.00025385
  53         0.85965877
  54         0.79060083
  55         0.88732679
  56         0.00000000
  57         0.00012081
  58        -0.40913153
  59        -0.37626525
  60        -0.42229938
  61        -0.00000000
Sym=    21a  
Ene=     3.6948
Spin= Alpha
Occup=    0.00000
   1        -0.00000000
   2         0.00000000
   3         0.00000000
   4         0.00000000
   5        -0.00000000
   6         0.00000000
   7         0.00000000
   8        -0.00000000
   9         0.00000000
  10        -0.00000000
  11         0.00000000
  12        -0.00000000
  13         0.00000000
  14        -0.00000000
  15         0.00000000
  16        -0.00000000
  17        -0.00000000
  18        -0.00000000
  19        -0.00000000
  20         0.00000000
  21         0.00000000
  22        -0.00000000
  23        -0.00000000
  24        -0.00000000
  25         0.00000000
  26         0.00000000
  27         0.00000000
  28        -0.00000000
  29        -0.00000000
  30         0.00000000
  31        -0.00000000
  32         0.00000000
  33        -0.00000000
  34         0.00000000
  35        -0.00000000
  36         0.00000000
  37        -0.00000000
  38         0.00000000
  39        -0.00000000
  40         0.00000000
  41         0.00000000
  42         0.00000127
  43         0.02965811
  44        -0.03842474
  45         0.00550279
  46         0.00000000
  47        -0.00000714
  48        -0.16630429
  49         0.21546210
  50        -0.03085624
  51        -0.00000000
  52         0.00003823
  53         0.89050972
  54        -1.15373506
  55         0.16522594
  56         0.00000000
  57        -0.00001819
  58        -0.42381421
  59         0.54908925
  60        -0.07863485
  61        -0.00000000
Sym=    22a  
Ene=     3.6948
Spin= Alpha
Occup=    0.00000
   1         0.00000000
   2        -0.00000000
   3         0.00000000
   4        -0.00000000
   5         0.00000000
   6        -0.00000000
   7         0.00000000
   8        -0.00000000
   9         0.00000000
  10        -0.00000000
  11         0.00000000
  12        -0.00000000
  13         0.00000000
  14        -0.00000000
  15         0.00000000
  16        -0.00000000
  17         0.00000000
  18        -0.00000000
  19        -0.00000000
  20        -0.00000000
  21         0.00000000
  22        -0.00000000
  23         0.00000000
  24        -0.00000000
  25         0.00000000
  26         0.00000000
  27         0.00000000
  28        -0.00000000
  29        -0.00000000
  30        -0.00000000
  31         0.00000000
  32         0.00000000
  33        -0.00000000
  34        -0.00000000
  35        -0.00000000
  36         0.00000000
  37         0.00000000
  38         0.00000000
  39        -0.00000000
  40        -0.00000000
  41         0.00000000
  42         0.00000409
  43        -0.02621122
  44        -0.01471664
  45         0.03850633
  46        -0.00000000
  47        -0.00002295
  48         0.14697627
  49         0.08252179
  50        -0.21591959
  51         0.00000000
  52         0.00012288
  53        -0.78701395
  54        -0.44187948
  55         1.15618481
  56        -0.00000001
  57        -0.00005848
  58         0.37455818
  59         0.21030068
  60        -0.55025514
  61         0.00000000
Sym=    23a  
Ene=     3.6948
Spin= Alpha
Occup=    0.00000
   1         0.00000000
   2        -0.00000000
   3        -0.00000000
   4         0.00000000
   5        -0.00000000
   6         0.00000000
   7        -0.00000000
   8         0.00000000
   9        -0.00000000
  10         0.00000000
  11        -0.00000000
  12         0.00000000
  13        -0.00000000
  14         0.00000000
  15         0.00000000
  16        -0.00000000
  17        -0.00000000
  18        -0.00000000
  19        -0.00000000
  20         0.00000000
  21         0.00000000
  22        -0.00000000
  23        -0.00000000
  24        -0.00000000
  25         0.00000000
  26         0.00000000
  27         0.00000000
  28        -0.00000000
  29        -0.00000000
  30         0.00000000
  31        -0.00000000
  32         0.00000000
  33        -0.00000000
  34        -0.00000000
  35        -0.00000000
  36         0.00000000
  37        -0.00000000
  38         0.00000000
  39        -0.00000000
  40        -0.00000000
  41         0.00000000
  42         0.00000016
  43        -0.00000000
  44        -0.00000000
  45         0.00000000
  46         0.04885023
  47        -0.00000088
  48         0.00000000
  49         0.00000000
  50        -0.00000000
  51        -0.27392178
  52         0.00000469
  53        -0.00000000
  54        -0.00000000
  55         0.00000001
  56         1.46676916
  57        -0.00000223
  58         0.00000000
  59         0.00000000
  60        -0.00000000
  61        -0.69806943
Sym=    24a  
Ene=     3.6998
Spin= Alpha
Occup=    0.00000
   1         0.00000000
   2         0.00000000
   3         0.00000000
   4         0.00000000
   5         0.00000000
   6         0.00000000
   7         0.00000000
   8         0.00000000
   9         0.00000000
  10         0.00000000
  11        -0.00000000
  12        -0.00000000
  13        -0.00000000
  14         0.00000000
  15         0.00000000
  16        -0.00000000
  17        -0.00131252
  18        -0.00000000
  19        -0.00000000
  20         0.01186021
  21         0.00000000
  22        -0.00000000
  23        -0.05879218
  24        -0.00000000
  25        -0.00000000
  26         0.22666064
  27         0.00000000
  28        -0.00000000
  29        -0.80632728
  30         0.00000000
  31        -0.00000000
  32         2.90007643
  33        -0.00000000
  34        -0.00000000
  35        -2.83517965
  36         0.00000000
  37        -0.00000000
  38         1.40373043
  39        -0.00000000
  40        -0.00000000
  41        -0.36341970
  42         0.00000000
  43        -0.00000000
  44         0.00000000
  45        -0.00000000
  46         0.00000000
  47        -0.00000000
  48         0.00000000
  49        -0.00000000
  50         0.00000000
  51        -0.00000000
  52         0.00000000
  53        -0.00000000
  54         0.00000000
  55        -0.00000000
  56        -0.00000000
  57         0.00000000
  58         0.00000000
  59         0.00000000
  60         0.00000000
  61         0.00000000
Sym=    25a  
Ene=     3.6998
Spin= Alpha
Occup=    0.00000
   1         0.00000000
   2         0.00000000
   3         0.00000000
   4         0.00000000
   5         0.00000000
   6         0.00000000
   7         0.00000000
   8         0.00000000
   9         0.00000000
  10         0.00000000
  11         0.00000000
  12         0.00000000
  13         0.00000000
  14        -0.00000000
  15        -0.00000000
  16        -0.00131252
  17         0.00000000
  18         0.00000000
  19         0.01186021
  20         0.00000000
  21        -0.00000000
  22        -0.05879218
  23        -0.00000000
  24         0.00000000
  25         0.22666064
  26         0.00000000
  27        -0.00000000
  28        -0.80632728
  29        -0.00000000
  30        -0.00000000
  31         2.90007643
  32         0.00000000
  33         0.00000000
  34        -2.83517965
  35        -0.00000000
  36        -0.00000000
  37         1.40373043
  38         0.00000000
  39         0.00000000
  40        -0.36341970
  41         0.00000000
  42        -0.00000000
  43        -0.00000000
  44        -0.00000000
  45         0.00000000
  46        -0.00000000
  47         0.00000000
  48        -0.00000000
  49         0.00000000
  50        -0.00000000
  51         0.00000000
  52        -0.00000000
  53         0.00000000
  54         0.00000000
  55         0.00000000
  56         0.00000000
  57         0.00000000
  58        -0.00000000
  59        -0.00000000
  60        -0.00000000
  61        -0.00000000
Sym=    26a  
Ene=     3.6998
Spin= Alpha
Occup=    0.00000
   1        -0.00000000
   2        -0.00000000
   3        -0.00000000
   4        -0.00000000
   5        -0.00000000
   6        -0.00000000
   7        -0.00000000
   8        -0.00000000
   9        -0.00000000
  10         0.00000000
  11        -0.00000000
  12        -0.00000000
  13        -0.00000000
  14         0.00000000
  15        -0.00131252
  16         0.00000000
  17         0.00000000
  18         0.01186021
  19         0.00000000
  20        -0.00000000
  21        -0.05879218
  22         0.00000000
  23         0.00000000
  24         0.22666064
  25         0.00000000
  26        -0.00000000
  27        -0.80632728
  28         0.00000000
  29         0.00000000
  30         2.90007643
  31         0.00000000
  32        -0.00000000
  33        -2.83517965
  34         0.00000000
  35         0.00000000
  36         1.40373043
  37         0.00000000
  38        -0.00000000
  39        -0.36341970
  40         0.00000000
  41        -0.00000000
  42         0.00000000
  43        -0.00000000
  44         0.00000000
  45        -0.00000000
  46         0.00000000
  47        -0.00000000
  48         0.00000000
  49        -0.00000000
  50         0.00000000
  51        -0.00000000
  52         0.00000000
  53        -0.00000000
  54        -0.00000000
  55        -0.00000000
  56        -0.00000000
  57        -0.00000000
  58         0.00000000
  59         0.00000000
  60         0.00000000
  61         0.00000000
Sym=    27a  
Ene=     4.0160
Spin= Alpha
Occup=    0.00000
   1        -0.00000312
   2         0.00003814
   3        -0.00027208
   4         0.00147448
   5        -0.00647438
   6         0.02692514
   7        -0.08823057
   8         0.34642366
   9        -0.82656000
  10         3.10179468
  11        -6.31314178
  12         5.86550289
  13        -2.70774342
  14         0.67253065
  15        -0.00000000
  16         0.00000000
  17        -0.00000000
  18         0.00000000
  19         0.00000000
  20        -0.00000000
  21        -0.00000000
  22         0.00000000
  23         0.00000000
  24         0.00000000
  25        -0.00000000
  26        -0.00000000
  27        -0.00000000
  28         0.00000000
  29         0.00000000
  30         0.00000000
  31         0.00000000
  32        -0.00000000
  33         0.00000000
  34         0.00000000
  35         0.00000000
  36        -0.00000000
  37         0.00000000
  38        -0.00000000
  39         0.00000000
  40         0.00000000
  41        -0.00000000
  42        -0.00000000
  43        -0.00000000
  44        -0.00000000
  45         0.00000000
  46         0.00000000
  47         0.00000000
  48         0.00000000
  49         0.00000000
  50        -0.00000000
  51        -0.00000000
  52        -0.00000000
  53        -0.00000000
  54        -0.00000000
  55         0.00000000
  56         0.00000000
  57         0.00000000
  58         0.00000000
  59         0.00000000
  60        -0.00000000
  61         0.00000000
Sym=    28a  
Ene=     4.7411
Spin= Alpha
Occup=    0.00000
   1         0.00000000
   2         0.00000000
   3         0.00000000
   4         0.00000000
   5         0.00000000
   6         0.00000000
   7         0.00000000
   8         0.00000000
   9        -0.00000000
  10        -0.00000000
  11         0.00000000
  12         0.00000000
  13         0.00000000
  14        -0.00000000
  15        -0.00000000
  16         0.00000000
  17         0.00365297
  18         0.00000000
  19         0.00000000
  20        -0.03355060
  21        -0.00000000
  22         0.00000000
  23         0.17223192
  24         0.00000000
  25         0.00000000
  26        -0.71464487
  27        -0.00000000
  28         0.00000000
  29         2.86764427
  30        -0.00000000
  31         0.00000000
  32        -3.05078464
  33         0.00000000
  34         0.00000000
  35         1.90124666
  36        -0.00000000
  37         0.00000000
  38        -0.82579696
  39         0.00000000
  40         0.00000000
  41         0.21096474
  42        -0.00000000
  43         0.00000000
  44        -0.00000000
  45         0.00000000
  46        -0.00000000
  47         0.00000000
  48        -0.00000000
  49         0.00000000
  50        -0.00000000
  51         0.00000000
  52        -0.00000000
  53         0.00000000
  54        -0.00000000
  55         0.00000000
  56         0.00000000
  57        -0.00000000
  58        -0.00000000
  59        -0.00000000
  60        -0.00000000
  61        -0.00000000
Sym=    29a  
Ene=     4.7411
Spin= Alpha
Occup=    0.00000
   1         0.00000000
   2         0.00000000
   3         0.00000000
   4         0.00000000
   5         0.00000000
   6         0.00000000
   7         0.00000000
   8         0.00000000
   9         0.00000000
  10         0.00000000
  11         0.00000000
  12         0.00000000
  13         0.00000000
  14        -0.00000000
  15        -0.00000000
  16         0.00365297
  17         0.00000000
  18         0.00000000
  19        -0.03355060
  20         0.00000000
  21        -0.00000000
  22         0.17223192
  23        -0.00000000
  24         0.00000000
  25        -0.71464487
  26         0.00000000
  27        -0.00000000
  28         2.86764427
  29        -0.00000000
  30        -0.00000000
  31        -3.05078464
  32         0.00000000
  33         0.00000000
  34         1.90124666
  35        -0.00000000
  36        -0.00000000
  37        -0.82579696
  38         0.00000000
  39         0.00000000
  40         0.21096474
  41         0.00000000
  42        -0.00000000
  43        -0.00000000
  44        -0.00000000
  45         0.00000000
  46        -0.00000000
  47         0.00000000
  48        -0.00000000
  49         0.00000000
  50        -0.00000000
  51         0.00000000
  52        -0.00000000
  53         0.00000000
  54         0.00000000
  55         0.00000000
  56         0.00000000
  57         0.00000000
  58        -0.00000000
  59        -0.00000000
  60        -0.00000000
  61        -0.00000000
Sym=    30a  
Ene=     4.7411
Spin= Alpha
Occup=    0.00000
   1        -0.00000000
   2        -0.00000000
   3        -0.00000000
   4        -0.00000000
   5        -0.00000000
   6        -0.00000000
   7         0.00000000
   8         0.00000000
   9         0.00000000
  10         0.00000000
  11        -0.00000000
  12        -0.00000000
  13        -0.00000000
  14         0.00000000
  15         0.00365297
  16         0.00000000
  17         0.00000000
  18        -0.03355060
  19         0.00000000
  20        -0.00000000
  21         0.17223192
  22         0.00000000
  23         0.00000000
  24        -0.71464487
  25         0.00000000
  26        -0.00000000
  27         2.86764427
  28         0.00000000
  29         0.00000000
  30        -3.05078464
  31         0.00000000
  32        -0.00000000
  33         1.90124666
  34         0.00000000
  35         0.00000000
  36        -0.82579696
  37         0.00000000
  38        -0.00000000
  39         0.21096474
  40         0.00000000
  41        -0.00000000
  42         0.00000000
  43        -0.00000000
  44         0.00000000
  45        -0.00000000
  46         0.00000000
  47        -0.00000000
  48         0.00000000
  49        -0.00000000
  50         0.00000000
  51        -0.00000000
  52         0.00000000
  53        -0.00000000
  54         0.00000000
  55        -0.00000000
  56        -0.00000000
  57         0.00000000
  58         0.00000000
  59         0.00000000
  60         0.00000000
  61         0.00000000
Sym=    31a  
Ene=     5.1102
Spin= Alpha
Occup=    0.00000
   1         0.00000000
   2        -0.00000000
   3         0.00000000
   4        -0.00000000
   5         0.00000000
   6        -0.00000000
   7         0.00000000
   8        -0.00000000
   9         0.00000000
  10        -0.00000000
  11         0.00000000
  12        -0.00000000
  13         0.00000000
  14        -0.00000000
  15        -0.00000000
  16        -0.00000000
  17        -0.00000000
  18        -0.00000000
  19         0.00000000
  20         0.00000000
  21        -0.00000000
  22        -0.00000000
  23        -0.00000000
  24         0.00000000
  25         0.00000000
  26        -0.00000000
  27        -0.00000000
  28        -0.00000000
  29         0.00000000
  30         0.00000000
  31         0.00000000
  32        -0.00000000
  33         0.00000000
  34         0.00000000
  35         0.00000000
  36        -0.00000000
  37         0.00000000
  38        -0.00000000
  39         0.00000000
  40        -0.00000000
  41         0.00000000
  42        -0.21186954
  43         0.00002992
  44         0.00002709
  45        -0.00002890
  46         0.00000000
  47         1.52465920
  48        -0.00021528
  49        -0.00019496
  50         0.00020794
  51        -0.00000002
  52        -1.00464957
  53         0.00014185
  54         0.00012847
  55        -0.00013702
  56         0.00000001
  57         0.34029427
  58        -0.00004805
  59        -0.00004351
  60         0.00004641
  61        -0.00000000
Sym=    32a  
Ene=     5.1102
Spin= Alpha
Occup=    0.00000
   1        -0.00000000
   2         0.00000000
   3        -0.00000000
   4         0.00000000
   5        -0.00000000
   6         0.00000000
   7        -0.00000000
   8         0.00000000
   9        -0.00000000
  10         0.00000000
  11        -0.00000000
  12         0.00000000
  13        -0.00000000
  14         0.00000000
  15         0.00000000
  16         0.00000000
  17        -0.00000000
  18        -0.00000000
  19        -0.00000000
  20         0.00000000
  21         0.00000000
  22         0.00000000
  23        -0.00000000
  24        -0.00000000
  25        -0.00000000
  26         0.00000000
  27         0.00000000
  28         0.00000000
  29        -0.00000000
  30         0.00000000
  31        -0.00000000
  32         0.00000000
  33        -0.00000000
  34        -0.00000000
  35        -0.00000000
  36         0.00000000
  37         0.00000000
  38         0.00000000
  39        -0.00000000
  40        -0.00000000
  41         0.00000000
  42        -0.00000000
  43        -0.00000000
  44        -0.00000000
  45        -0.00000000
  46        -0.21186955
  47         0.00000002
  48         0.00000000
  49         0.00000000
  50         0.00000000
  51         1.52465924
  52        -0.00000001
  53        -0.00000000
  54        -0.00000000
  55        -0.00000000
  56        -1.00464960
  57         0.00000000
  58         0.00000000
  59         0.00000000
  60         0.00000000
  61         0.34029428
Sym=    33a  
Ene=     5.1102
Spin= Alpha
Occup=    0.00000
   1        -0.00000000
   2         0.00000000
   3         0.00000000
   4        -0.00000000
   5         0.00000000
   6        -0.00000000
   7         0.00000000
   8        -0.00000000
   9         0.00000000
  10        -0.00000000
  11         0.00000000
  12        -0.00000000
  13         0.00000000
  14        -0.00000000
  15        -0.00000000
  16         0.00000000
  17         0.00000000
  18         0.00000000
  19         0.00000000
  20        -0.00000000
  21        -0.00000000
  22         0.00000000
  23         0.00000000
  24         0.00000000
  25        -0.00000000
  26        -0.00000000
  27        -0.00000000
  28         0.00000000
  29         0.00000000
  30        -0.00000000
  31         0.00000000
  32        -0.00000000
  33         0.00000000
  34        -0.00000000
  35         0.00000000
  36        -0.00000000
  37         0.00000000
  38        -0.00000000
  39         0.00000000
  40         0.00000000
  41        -0.00000000
  42        -0.00000927
  43        -0.00103961
  44        -0.18378458
  45        -0.10540802
  46         0.00000000
  47         0.00006672
  48         0.00748126
  49         1.32255374
  50         0.75853900
  51        -0.00000000
  52        -0.00004396
  53        -0.00492966
  54        -0.87147545
  55        -0.49982704
  56         0.00000000
  57         0.00001489
  58         0.00166977
  59         0.29518561
  60         0.16930110
  61        -0.00000000
Sym=    34a  
Ene=     5.1102
Spin= Alpha
Occup=    0.00000
   1        -0.00000000
   2         0.00000000
   3        -0.00000000
   4         0.00000000
   5         0.00000000
   6         0.00000000
   7        -0.00000000
   8         0.00000000
   9        -0.00000000
  10         0.00000000
  11         0.00000000
  12         0.00000000
  13         0.00000000
  14         0.00000000
  15        -0.00000000
  16         0.00000000
  17         0.00000000
  18         0.00000000
  19         0.00000000
  20        -0.00000000
  21        -0.00000000
  22         0.00000000
  23         0.00000000
  24         0.00000000
  25         0.00000000
  26        -0.00000000
  27        -0.00000000
  28         0.00000000
  29         0.00000000
  30        -0.00000000
  31         0.00000000
  32        -0.00000000
  33         0.00000000
  34         0.00000000
  35         0.00000000
  36        -0.00000000
  37         0.00000000
  38        -0.00000000
  39         0.00000000
  40         0.00000000
  41        -0.00000000
  42         0.00003978
  43         0.00903237
  44         0.10527501
  45        -0.18364175
  46        -0.00000000
  47        -0.00028629
  48        -0.06499887
  49        -0.75758180
  50         1.32152589
  51         0.00000000
  52         0.00018865
  53         0.04282996
  54         0.49919630
  55        -0.87079816
  56        -0.00000000
  57        -0.00006390
  58        -0.01450734
  59        -0.16908746
  60         0.29495620
  61         0.00000000
Sym=    35a  
Ene=     5.1102
Spin= Alpha
Occup=    0.00000
   1        -0.00000000
   2         0.00000000
   3         0.00000000
   4         0.00000000
   5         0.00000000
   6         0.00000000
   7         0.00000000
   8         0.00000000
   9        -0.00000000
  10        -0.00000000
  11         0.00000000
  12        -0.00000000
  13         0.00000000
  14        -0.00000000
  15        -0.00000000
  16         0.00000000
  17        -0.00000000
  18         0.00000000
  19         0.00000000
  20         0.00000000
  21        -0.00000000
  22         0.00000000
  23        -0.00000000
  24         0.00000000
  25         0.00000000
  26        -0.00000000
  27        -0.00000000
  28         0.00000000
  29         0.00000000
  30        -0.00000000
  31        -0.00000000
  32        -0.00000000
  33         0.00000000
  34         0.00000000
  35         0.00000000
  36        -0.00000000
  37         0.00000000
  38        -0.00000000
  39         0.00000000
  40        -0.00000000
  41        -0.00000000
  42        -0.00002820
  43        -0.21167437
  44         0.00539483
  45        -0.00731849
  46         0.00000000
  47         0.00020293
  48         1.52325471
  49        -0.03882238
  50         0.05266546
  51        -0.00000000
  52        -0.00013372
  53        -1.00372411
  54         0.02558138
  55        -0.03470305
  56         0.00000000
  57         0.00004529
  58         0.33998080
  59        -0.00866491
  60         0.01175460
  61        -0.00000000
Sym=    36a  
Ene=     6.3143
Spin= Alpha
Occup=    0.00000
   1        -0.00001030
   2         0.00012567
   3        -0.00090120
   4         0.00482788
   5        -0.02207072
   6         0.08538736
   7        -0.34219466
   8         1.05879472
   9        -4.16160677
  10         7.45074563
  11        -6.29303702
  12         3.36852541
  13        -1.47504644
  14         0.34593335
  15        -0.00000000
  16         0.00000000
  17         0.00000000
  18         0.00000000
  19         0.00000000
  20        -0.00000000
  21        -0.00000000
  22         0.00000000
  23         0.00000000
  24         0.00000000
  25         0.00000000
  26        -0.00000000
  27        -0.00000000
  28         0.00000000
  29         0.00000000
  30        -0.00000000
  31         0.00000000
  32        -0.00000000
  33         0.00000000
  34        -0.00000000
  35         0.00000000
  36        -0.00000000
  37         0.00000000
  38        -0.00000000
  39         0.00000000
  40         0.00000000
  41        -0.00000000
  42        -0.00000000
  43        -0.00000000
  44        -0.00000000
  45        -0.00000000
  46         0.00000000
  47         0.00000000
  48         0.00000000
  49         0.00000000
  50        -0.00000000
  51        -0.00000000
  52        -0.00000000
  53        -0.00000000
  54        -0.00000000
  55         0.00000000
  56         0.00000000
  57         0.00000000
  58         0.00000000
  59         0.00000000
  60        -0.00000000
  61        -0.00000000
Sym=    37a  
Ene=     7.3443
Spin= Alpha
Occup=    0.00000
   1        -0.00000000
   2        -0.00000000
   3        -0.00000000
   4        -0.00000000
   5        -0.00000000
   6        -0.00000000
   7        -0.00000000
   8        -0.00000000
   9         0.00000000
  10         0.00000000
  11        -0.00000000
  12        -0.00000000
  13        -0.00000000
  14         0.00000000
  15         0.00000000
  16        -0.00000000
  17        -0.01060309
  18        -0.00000000
  19        -0.00000000
  20         0.10127846
  21         0.00000000
  22        -0.00000000
  23        -0.56339860
  24        -0.00000000
  25        -0.00000000
  26         2.67993504
  27         0.00000000
  28        -0.00000000
  29        -2.96408760
  30         0.00000000
  31        -0.00000000
  32         2.01107460
  33        -0.00000000
  34        -0.00000000
  35        -1.10320054
  36         0.00000000
  37        -0.00000000
  38         0.47313604
  39        -0.00000000
  40        -0.00000000
  41        -0.12253614
  42         0.00000000
  43        -0.00000000
  44         0.00000000
  45        -0.00000000
  46         0.00000000
  47        -0.00000000
  48         0.00000000
  49        -0.00000000
  50         0.00000000
  51        -0.00000000
  52         0.00000000
  53        -0.00000000
  54         0.00000000
  55        -0.00000000
  56        -0.00000000
  57         0.00000000
  58         0.00000000
  59         0.00000000
  60         0.00000000
  61         0.00000000
Sym=    38a  
Ene=     7.3443
Spin= Alpha
Occup=    0.00000
   1         0.00000000
   2         0.00000000
   3         0.00000000
   4         0.00000000
   5         0.00000000
   6         0.00000000
   7         0.00000000
   8         0.00000000
   9         0.00000000
  10         0.00000000
  11         0.00000000
  12         0.00000000
  13         0.00000000
  14        -0.00000000
  15        -0.00000000
  16        -0.01060309
  17         0.00000000
  18         0.00000000
  19         0.10127846
  20         0.00000000
  21        -0.00000000
  22        -0.56339860
  23        -0.00000000
  24         0.00000000
  25         2.67993504
  26         0.00000000
  27        -0.00000000
  28        -2.96408760
  29        -0.00000000
  30        -0.00000000
  31         2.01107460
  32         0.00000000
  33         0.00000000
  34        -1.10320054
  35        -0.00000000
  36        -0.00000000
  37         0.47313604
  38         0.00000000
  39         0.00000000
  40        -0.12253614
  41         0.00000000
  42        -0.00000000
  43        -0.00000000
  44        -0.00000000
  45         0.00000000
  46        -0.00000000
  47         0.00000000
  48        -0.00000000
  49         0.00000000
  50        -0.00000000
  51         0.00000000
  52        -0.00000000
  53         0.00000000
  54         0.00000000
  55         0.00000000
  56         0.00000000
  57         0.00000000
  58        -0.00000000
  59        -0.00000000
  60        -0.00000000
  61        -0.00000000
Sym=    39a  
Ene=     7.3443
Spin= Alpha
Occup=    0.00000
   1         0.00000000
   2         0.00000000
   3         0.00000000
   4         0.00000000
   5         0.00000000
   6         0.00000000
   7         0.00000000
   8         0.00000000
   9         0.00000000
  10         0.00000000
  11        -0.00000000
  12        -0.00000000
  13        -0.00000000
  14         0.00000000
  15        -0.01060309
  16        -0.00000000
  17         0.00000000
  18         0.10127846
  19        -0.00000000
  20        -0.00000000
  21        -0.56339860
  22        -0.00000000
  23         0.00000000
  24         2.67993504
  25        -0.00000000
  26         0.00000000
  27        -2.96408760
  28        -0.00000000
  29        -0.00000000
  30         2.01107460
  31        -0.00000000
  32         0.00000000
  33        -1.10320054
  34        -0.00000000
  35        -0.00000000
  36         0.47313604
  37        -0.00000000
  38        -0.00000000
  39        -0.12253614
  40        -0.00000000
  41         0.00000000
  42        -0.00000000
  43        -0.00000000
  44        -0.00000000
  45         0.00000000
  46        -0.00000000
  47         0.00000000
  48         0.00000000
  49         0.00000000
  50        -0.00000000
  51         0.00000000
  52        -0.00000000
  53        -0.00000000
  54         0.00000000
  55         0.00000000
  56         0.00000000
  57         0.00000000
  58         0.00000000
  59        -0.00000000
  60        -0.00000000
  61        -0.00000000
Sym=    40a  
Ene=     9.3895
Spin= Alpha
Occup=    0.00000
   1         0.00000000
   2        -0.00000000
   3         0.00000000
   4        -0.00000000
   5         0.00000000
   6        -0.00000000
   7         0.00000000
   8        -0.00000000
   9        -0.00000000
  10         0.00000000
  11        -0.00000000
  12         0.00000000
  13         0.00000000
  14        -0.00000000
  15         0.00000000
  16         0.00000000
  17        -0.00000000
  18        -0.00000000
  19        -0.00000000
  20         0.00000000
  21         0.00000000
  22        -0.00000000
  23        -0.00000000
  24        -0.00000000
  25        -0.00000000
  26         0.00000000
  27         0.00000000
  28         0.00000000
  29        -0.00000000
  30        -0.00000000
  31        -0.00000000
  32         0.00000000
  33        -0.00000000
  34        -0.00000000
  35        -0.00000000
  36         0.00000000
  37         0.00000000
  38         0.00000000
  39        -0.00000000
  40        -0.00000000
  41         0.00000000
  42        -0.00669956
  43         1.02385276
  44         0.06084519
  45         0.91511594
  46         0.00000000
  47         0.00501953
  48        -0.76710488
  49        -0.04558726
  50        -0.68563560
  51        -0.00000000
  52        -0.00233530
  53         0.35688950
  54         0.02120911
  55         0.31898656
  56         0.00000000
  57         0.00076824
  58        -0.11740585
  59        -0.00697716
  60        -0.10493693
  61        -0.00000000
Sym=    41a  
Ene=     9.3895
Spin= Alpha
Occup=    0.00000
   1        -0.00000000
   2         0.00000000
   3        -0.00000000
   4         0.00000000
   5        -0.00000000
   6         0.00000000
   7        -0.00000000
   8         0.00000000
   9        -0.00000000
  10        -0.00000000
  11         0.00000000
  12        -0.00000000
  13         0.00000000
  14        -0.00000000
  15         0.00000000
  16         0.00000000
  17        -0.00000000
  18         0.00000000
  19        -0.00000000
  20         0.00000000
  21         0.00000000
  22         0.00000000
  23        -0.00000000
  24        -0.00000000
  25        -0.00000000
  26         0.00000000
  27         0.00000000
  28         0.00000000
  29        -0.00000000
  30        -0.00000000
  31        -0.00000000
  32         0.00000000
  33        -0.00000000
  34         0.00000000
  35        -0.00000000
  36         0.00000000
  37        -0.00000000
  38         0.00000000
  39        -0.00000000
  40         0.00000000
  41         0.00000000
  42         1.37454965
  43         0.00161135
  44        -0.00063006
  45         0.00830215
  46        -0.00000009
  47        -1.02985878
  48        -0.00120728
  49         0.00047206
  50        -0.00622025
  51         0.00000006
  52         0.47913367
  53         0.00056168
  54        -0.00021962
  55         0.00289392
  56        -0.00000003
  57        -0.15762049
  58        -0.00018477
  59         0.00007225
  60        -0.00095201
  61         0.00000001
Sym=    42a  
Ene=     9.3895
Spin= Alpha
Occup=    0.00000
   1         0.00000000
   2         0.00000000
   3        -0.00000000
   4         0.00000000
   5         0.00000000
   6         0.00000000
   7        -0.00000000
   8         0.00000000
   9        -0.00000000
  10         0.00000000
  11        -0.00000000
  12         0.00000000
  13        -0.00000000
  14         0.00000000
  15         0.00000000
  16        -0.00000000
  17        -0.00000000
  18        -0.00000000
  19         0.00000000
  20         0.00000000
  21         0.00000000
  22        -0.00000000
  23        -0.00000000
  24        -0.00000000
  25         0.00000000
  26         0.00000000
  27         0.00000000
  28        -0.00000000
  29        -0.00000000
  30         0.00000000
  31        -0.00000000
  32         0.00000000
  33        -0.00000000
  34        -0.00000000
  35        -0.00000000
  36         0.00000000
  37        -0.00000000
  38         0.00000000
  39        -0.00000000
  40        -0.00000000
  41         0.00000000
  42        -0.00512019
  43        -0.91582614
  44        -0.00610697
  45         1.02501592
  46        -0.00000000
  47         0.00383622
  48         0.68616771
  49         0.00457555
  50        -0.76797636
  51         0.00000000
  52        -0.00178477
  53        -0.31923412
  54        -0.00212874
  55         0.35729494
  56        -0.00000000
  57         0.00058714
  58         0.10501837
  59         0.00070029
  60        -0.11753923
  61         0.00000000
Sym=    43a  
Ene=     9.3895
Spin= Alpha
Occup=    0.00000
   1         0.00000000
   2         0.00000000
   3         0.00000000
   4        -0.00000000
   5         0.00000000
   6        -0.00000000
   7         0.00000000
   8        -0.00000000
   9         0.00000000
  10        -0.00000000
  11         0.00000000
  12         0.00000000
  13         0.00000000
  14        -0.00000000
  15        -0.00000000
  16         0.00000000
  17         0.00000000
  18         0.00000000
  19         0.00000000
  20        -0.00000000
  21        -0.00000000
  22         0.00000000
  23         0.00000000
  24         0.00000000
  25         0.00000000
  26        -0.00000000
  27        -0.00000000
  28         0.00000000
  29         0.00000000
  30        -0.00000000
  31         0.00000000
  32        -0.00000000
  33         0.00000000
  34         0.00000000
  35         0.00000000
  36        -0.00000000
  37         0.00000000
  38        -0.00000000
  39         0.00000000
  40         0.00000000
  41        -0.00000000
  42         0.00090475
  43        -0.04943758
  44         1.37321478
  45        -0.03598521
  46         0.00000000
  47        -0.00067787
  48         0.03704030
  49        -1.02885865
  50         0.02696133
  51        -0.00000000
  52         0.00031537
  53        -0.01723271
  54         0.47866837
  55        -0.01254355
  56         0.00000000
  57        -0.00010375
  58         0.00566904
  59        -0.15746742
  60         0.00412645
  61        -0.00000000
Sym=    44a  
Ene=     9.3895
Spin= Alpha
Occup=    0.00000
   1         0.00000000
   2        -0.00000000
   3         0.00000000
   4        -0.00000000
   5         0.00000000
   6        -0.00000000
   7         0.00000000
   8        -0.00000000
   9         0.00000000
  10        -0.00000000
  11         0.00000000
  12         0.00000000
  13         0.00000000
  14        -0.00000000
  15        -0.00000000
  16         0.00000000
  17         0.00000000
  18         0.00000000
  19         0.00000000
  20        -0.00000000
  21        -0.00000000
  22         0.00000000
  23         0.00000000
  24         0.00000000
  25        -0.00000000
  26        -0.00000000
  27        -0.00000000
  28         0.00000000
  29         0.00000000
  30        -0.00000000
  31         0.00000000
  32        -0.00000000
  33         0.00000000
  34         0.00000000
  35         0.00000000
  36        -0.00000000
  37         0.00000000
  38        -0.00000000
  39         0.00000000
  40         0.00000000
  41        -0.00000000
  42         0.00000009
  43         0.00000000
  44        -0.00000000
  45         0.00000000
  46         1.37457581
  47        -0.00000006
  48        -0.00000000
  49         0.00000000
  50        -0.00000000
  51        -1.02987838
  52         0.00000003
  53         0.00000000
  54        -0.00000000
  55         0.00000000
  56         0.47914279
  57        -0.00000001
  58        -0.00000000
  59         0.00000000
  60        -0.00000000
  61        -0.15762349
Sym=    45a  
Ene=    12.8720
Spin= Alpha
Occup=    0.00000
   1        -0.00003184
   2         0.00038921
   3        -0.00278664
   4         0.01514295
   5        -0.06842897
   6         0.28942556
   7        -1.09392183
   8         4.64505637
   9        -7.43037805
  10         6.07015242
  11        -3.65973315
  12         1.90155414
  13        -0.75247242
  14         0.18545427
  15         0.00000000
  16         0.00000000
  17        -0.00000000
  18        -0.00000000
  19        -0.00000000
  20         0.00000000
  21         0.00000000
  22        -0.00000000
  23        -0.00000000
  24        -0.00000000
  25        -0.00000000
  26         0.00000000
  27         0.00000000
  28         0.00000000
  29        -0.00000000
  30        -0.00000000
  31        -0.00000000
  32         0.00000000
  33         0.00000000
  34        -0.00000000
  35        -0.00000000
  36        -0.00000000
  37         0.00000000
  38         0.00000000
  39         0.00000000
  40        -0.00000000
  41         0.00000000
  42        -0.00000000
  43        -0.00000000
  44        -0.00000000
  45        -0.00000000
  46         0.00000000
  47         0.00000000
  48         0.00000000
  49         0.00000000
  50         0.00000000
  51         0.00000000
  52        -0.00000000
  53        -0.00000000
  54        -0.00000000
  55         0.00000000
  56        -0.00000000
  57         0.00000000
  58         0.00000000
  59         0.00000000
  60        -0.00000000
  61         0.00000000
Sym=    46a  
Ene=    14.1670
Spin= Alpha
Occup=    0.00000
   1        -0.00000000
   2        -0.00000000
   3        -0.00000000
   4        -0.00000000
   5        -0.00000000
   6        -0.00000000
   7        -0.00000000
   8        -0.00000000
   9        -0.00000000
  10        -0.00000000
  11         0.00000000
  12         0.00000000
  13         0.00000000
  14        -0.00000000
  15        -0.00000000
  16         0.00000000
  17         0.03357444
  18         0.00000000
  19         0.00000000
  20        -0.35409953
  21        -0.00000000
  22         0.00000000
  23         2.34081123
  24         0.00000000
  25         0.00000000
  26        -2.65216097
  27        -0.00000000
  28         0.00000000
  29         1.88060307
  30        -0.00000000
  31         0.00000000
  32        -1.13288768
  33         0.00000000
  34         0.00000000
  35         0.61595319
  36        -0.00000000
  37         0.00000000
  38        -0.26753668
  39         0.00000000
  40         0.00000000
  41         0.07014175
  42        -0.00000000
  43         0.00000000
  44        -0.00000000
  45         0.00000000
  46        -0.00000000
  47         0.00000000
  48        -0.00000000
  49         0.00000000
  50        -0.00000000
  51         0.00000000
  52        -0.00000000
  53         0.00000000
  54        -0.00000000
  55         0.00000000
  56         0.00000000
  57        -0.00000000
  58        -0.00000000
  59        -0.00000000
  60        -0.00000000
  61        -0.00000000
Sym=    47a  
Ene=    14.1670
Spin= Alpha
Occup=    0.00000
   1         0.00000000
   2         0.00000000
   3         0.00000000
   4         0.00000000
   5         0.00000000
   6         0.00000000
   7         0.00000000
   8         0.00000000
   9         0.00000000
  10         0.00000000
  11         0.00000000
  12         0.00000000
  13         0.00000000
  14        -0.00000000
  15        -0.00000000
  16         0.03357444
  17         0.00000000
  18         0.00000000
  19        -0.35409953
  20         0.00000000
  21        -0.00000000
  22         2.34081123
  23        -0.00000000
  24         0.00000000
  25        -2.65216097
  26         0.00000000
  27        -0.00000000
  28         1.88060307
  29        -0.00000000
  30        -0.00000000
  31        -1.13288768
  32         0.00000000
  33         0.00000000
  34         0.61595319
  35        -0.00000000
  36        -0.00000000
  37        -0.26753668
  38         0.00000000
  39         0.00000000
  40         0.07014175
  41         0.00000000
  42        -0.00000000
  43        -0.00000000
  44        -0.00000000
  45         0.00000000
  46        -0.00000000
  47         0.00000000
  48        -0.00000000
  49         0.00000000
  50        -0.00000000
  51         0.00000000
  52        -0.00000000
  53         0.00000000
  54         0.00000000
  55         0.00000000
  56         0.00000000
  57         0.00000000
  58        -0.00000000
  59        -0.00000000
  60        -0.00000000
  61        -0.00000000
Sym=    48a  
Ene=    14.1670
Spin= Alpha
Occup=    0.00000
   1         0.00000000
   2         0.00000000
   3         0.00000000
   4         0.00000000
   5         0.00000000
   6         0.00000000
   7         0.00000000
   8         0.00000000
   9         0.00000000
  10         0.00000000
  11        -0.00000000
  12        -0.00000000
  13        -0.00000000
  14         0.00000000
  15         0.03357444
  16         0.00000000
  17         0.00000000
  18        -0.35409953
  19         0.00000000
  20        -0.00000000
  21         2.34081123
  22         0.00000000
  23         0.00000000
  24        -2.65216097
  25         0.00000000
  26        -0.00000000
  27         1.88060307
  28         0.00000000
  29         0.00000000
  30        -1.13288768
  31         0.00000000
  32        -0.00000000
  33         0.61595319
  34         0.00000000
  35         0.00000000
  36        -0.26753668
  37         0.00000000
  38        -0.00000000
  39         0.07014175
  40         0.00000000
  41        -0.00000000
  42         0.00000000
  43        -0.00000000
  44         0.00000000
  45        -0.00000000
  46         0.00000000
  47         0.00000000
  48         0.00000000
  49        -0.00000000
  50         0.00000000
  51        -0.00000000
  52         0.00000000
  53        -0.00000000
  54         0.00000000
  55        -0.00000000
  56        -0.00000000
  57         0.00000000
  58         0.00000000
  59         0.00000000
  60         0.00000000
  61         0.00000000
Sym=    49a  
Ene=    30.3180
Spin= Alpha
Occup=    0.00000
   1         0.00009356
   2        -0.00114428
   3         0.00824395
   4        -0.04510323
   5         0.21347343
   6        -0.93433267
   7         4.27777491
   8        -6.47940471
   9         5.35236348
  10        -3.53918308
  11         2.02367433
  12        -0.98642039
  13         0.43246131
  14        -0.10357240
  15         0.00000000
  16         0.00000000
  17        -0.00000000
  18        -0.00000000
  19        -0.00000000
  20         0.00000000
  21         0.00000000
  22         0.00000000
  23        -0.00000000
  24         0.00000000
  25        -0.00000000
  26         0.00000000
  27         0.00000000
  28        -0.00000000
  29        -0.00000000
  30         0.00000000
  31         0.00000000
  32         0.00000000
  33        -0.00000000
  34        -0.00000000
  35        -0.00000000
  36         0.00000000
  37         0.00000000
  38         0.00000000
  39        -0.00000000
  40        -0.00000000
  41         0.00000000
  42         0.00000000
  43        -0.00000000
  44        -0.00000000
  45        -0.00000000
  46         0.00000000
  47         0.00000000
  48         0.00000000
  49        -0.00000000
  50         0.00000000
  51         0.00000000
  52        -0.00000000
  53         0.00000000
  54         0.00000000
  55        -0.00000000
  56        -0.00000000
  57         0.00000000
  58        -0.00000000
  59        -0.00000000
  60         0.00000000
  61         0.00000000
Sym=    50a  
Ene=    34.0240
Spin= Alpha
Occup=    0.00000
   1         0.00000000
   2         0.00000000
   3         0.00000000
   4         0.00000000
   5         0.00000000
   6         0.00000000
   7         0.00000000
   8         0.00000000
   9         0.00000000
  10         0.00000000
  11        -0.00000000
  12        -0.00000000
  13        -0.00000000
  14         0.00000000
  15         0.00000000
  16        -0.00000000
  17        -0.13266498
  18        -0.00000000
  19        -0.00000000
  20         1.84676789
  21         0.00000000
  22        -0.00000000
  23        -2.08590579
  24        -0.00000000
  25        -0.00000000
  26         1.54451447
  27         0.00000000
  28        -0.00000000
  29        -0.99148580
  30         0.00000000
  31        -0.00000000
  32         0.59665165
  33        -0.00000000
  34        -0.00000000
  35        -0.32928619
  36         0.00000000
  37        -0.00000000
  38         0.14465487
  39        -0.00000000
  40        -0.00000000
  41        -0.03819989
  42         0.00000000
  43        -0.00000000
  44         0.00000000
  45        -0.00000000
  46         0.00000000
  47         0.00000000
  48         0.00000000
  49        -0.00000000
  50         0.00000000
  51        -0.00000000
  52         0.00000000
  53        -0.00000000
  54         0.00000000
  55        -0.00000000
  56        -0.00000000
  57         0.00000000
  58         0.00000000
  59         0.00000000
  60         0.00000000
  61         0.00000000
Sym=    51a  
Ene=    34.0240
Spin= Alpha
Occup=    0.00000
   1         0.00000000
   2         0.00000000
   3         0.00000000
   4         0.00000000
   5         0.00000000
   6         0.00000000
   7         0.00000000
   8         0.00000000
   9         0.00000000
  10         0.00000000
  11         0.00000000
  12         0.00000000
  13         0.00000000
  14        -0.00000000
  15        -0.00000000
  16        -0.13266498
  17         0.00000000
  18         0.00000000
  19         1.84676789
  20         0.00000000
  21        -0.00000000
  22        -2.08590579
  23        -0.00000000
  24         0.00000000
  25         1.54451447
  26         0.00000000
  27        -0.00000000
  28        -0.99148580
  29        -0.00000000
  30        -0.00000000
  31         0.59665165
  32         0.00000000
  33         0.00000000
  34        -0.32928619
  35        -0.00000000
  36        -0.00000000
  37         0.14465487
  38         0.00000000
  39         0.00000000
  40        -0.03819989
  41         0.00000000
  42        -0.00000000
  43        -0.00000000
  44        -0.00000000
  45         0.00000000
  46        -0.00000000
  47         0.00000000
  48        -0.00000000
  49         0.00000000
  50        -0.00000000
  51         0.00000000
  52        -0.00000000
  53         0.00000000
  54         0.00000000
  55         0.00000000
  56         0.00000000
  57         0.00000000
  58        -0.00000000
  59        -0.00000000
  60        -0.00000000
  61        -0.00000000
Sym=    52a  
Ene=    34.0240
Spin= Alpha
Occup=    0.00000
   1        -0.00000000
   2        -0.00000000
   3        -0.00000000
   4        -0.00000000
   5        -0.00000000
   6        -0.00000000
   7        -0.00000000
   8        -0.00000000
   9        -0.00000000
  10        -0.00000000
  11        -0.00000000
  12        -0.00000000
  13        -0.00000000
  14         0.00000000
  15        -0.13266498
  16         0.00000000
  17        -0.00000000
  18         1.84676789
  19         0.00000000
  20        -0.00000000
  21        -2.08590579
  22         0.00000000
  23         0.00000000
  24         1.54451447
  25         0.00000000
  26        -0.00000000
  27        -0.99148580
  28         0.00000000
  29         0.00000000
  30         0.59665165
  31         0.00000000
  32        -0.00000000
  33        -0.32928619
  34         0.00000000
  35         0.00000000
  36         0.14465487
  37         0.00000000
  38        -0.00000000
  39        -0.03819989
  40         0.00000000
  41        -0.00000000
  42         0.00000000
  43         0.00000000
  44         0.00000000
  45        -0.00000000
  46         0.00000000
  47        -0.00000000
  48         0.00000000
  49        -0.00000000
  50         0.00000000
  51        -0.00000000
  52         0.00000000
  53        -0.00000000
  54        -0.00000000
  55        -0.00000000
  56        -0.00000000
  57        -0.00000000
  58         0.00000000
  59         0.00000000
  60         0.00000000
  61         0.00000000
