[MOLDEN FORMAT]
[N_ATOMS]
                    1
[ATOMS] (AU)
BE          1      4           0.00000000      0.00000000      0.00000000
[5D]
[CHARGE] (MULLIKEN)
  -7.0166095156309893E-014
[GTO] (AU)
   1
   s   1
  0.226964848E+05  0.100000000E+01
   s   1
  0.338243505E+04  0.100000000E+01
   s   1
  0.762631451E+03  0.100000000E+01
   s   1
  0.212375701E+03  0.100000000E+01
   s   1
  0.674251384E+02  0.100000000E+01
   s   1
  0.234422935E+02  0.100000000E+01
   s   1
  0.874753712E+01  0.100000000E+01
   s   1
  0.347849527E+01  0.100000000E+01
   s   1
  0.145650043E+01  0.100000000E+01
   s   1
  0.610440845E+00  0.100000000E+01
   s   1
  0.258459058E+00  0.100000000E+01
   s   1
  0.104488528E+00  0.100000000E+01
   s   1
  0.425542810E-01  0.100000000E+01
   s   1
  0.148935470E-01  0.100000000E+01
   p   1
  0.337101840E+02  0.100000000E+01
   p   1
  0.805764950E+01  0.100000000E+01
   p   1
  0.283647140E+01  0.100000000E+01
   p   1
  0.109996570E+01  0.100000000E+01
   p   1
  0.443396400E+00  0.100000000E+01
   p   1
  0.182226400E+00  0.100000000E+01
   p   1
  0.757241000E-01  0.100000000E+01
   p   1
  0.316854000E-01  0.100000000E+01
   p   1
  0.110899000E-01  0.100000000E+01
   d   1
  0.140000000E+01  0.100000000E+01
   d   1
  0.490000000E+00  0.100000000E+01
   d   1
  0.171500000E+00  0.100000000E+01
   d   1
  0.600250000E-01  0.100000000E+01
 
[MO]
Sym=     1a  
Ene=     0.0000
Spin= Alpha
Occup=    1.99687
   1         0.00005323
   2         0.00041742
   3         0.00222262
   4         0.00954765
   5         0.03478403
   6         0.10593673
   7         0.24553583
   8         0.38647541
   9         0.31265672
  10         0.06571653
  11        -0.00469748
  12        -0.00592913
  13        -0.00289348
  14         0.00009376
  15         0.00000000
  16         0.00000000
  17         0.00000000
  18        -0.00000000
  19        -0.00000000
  20         0.00000000
  21         0.00000000
  22        -0.00000000
  23        -0.00000000
  24        -0.00000000
  25        -0.00000000
  26        -0.00000000
  27         0.00000000
  28         0.00000000
  29        -0.00000000
  30        -0.00000000
  31         0.00000000
  32         0.00000000
  33         0.00000000
  34         0.00000000
  35         0.00000000
  36         0.00000000
  37         0.00000000
  38         0.00000000
  39        -0.00000000
  40        -0.00000000
  41         0.00000000
  42        -0.00000000
  43        -0.00000000
  44        -0.00000000
  45        -0.00000000
  46        -0.00000000
  47         0.00000000
  48         0.00000000
  49         0.00000000
  50         0.00000000
  51        -0.00000000
  52        -0.00000000
  53        -0.00000000
  54        -0.00000000
  55        -0.00000000
  56        -0.00000000
  57         0.00000000
  58        -0.00000000
  59        -0.00000000
  60         0.00000000
  61        -0.00000000
Sym=     2a  
Ene=     0.0000
Spin= Alpha
Occup=    1.80733
   1        -0.00000936
   2        -0.00007340
   3        -0.00039126
   4        -0.00168830
   5        -0.00622655
   6        -0.01959842
   7        -0.04883616
   8        -0.09287990
   9        -0.13027800
  10        -0.06167605
  11         0.28904602
  12         0.62420114
  13         0.23261332
  14        -0.00188091
  15         0.00000000
  16        -0.00000000
  17        -0.00000000
  18        -0.00000000
  19        -0.00000000
  20        -0.00000000
  21         0.00000000
  22         0.00000000
  23         0.00000000
  24        -0.00000000
  25         0.00000000
  26         0.00000000
  27         0.00000001
  28         0.00000000
  29         0.00000000
  30         0.00000002
  31         0.00000001
  32         0.00000000
  33        -0.00000003
  34        -0.00000001
  35        -0.00000001
  36         0.00000000
  37        -0.00000000
  38        -0.00000000
  39        -0.00000000
  40        -0.00000000
  41        -0.00000000
  42         0.00000000
  43        -0.00000000
  44        -0.00000000
  45         0.00000000
  46        -0.00000000
  47        -0.00000000
  48        -0.00000000
  49        -0.00000000
  50        -0.00000000
  51        -0.00000000
  52         0.00000000
  53         0.00000000
  54         0.00000000
  55         0.00000000
  56         0.00000000
  57         0.00000000
  58         0.00000000
  59         0.00000000
  60         0.00000000
  61         0.00000000
Sym=     3a  
Ene=     0.0000
Spin= Alpha
Occup=    0.00063
   1        -0.00000000
   2         0.00000000
   3         0.00000000
   4        -0.00000000
   5         0.00000002
   6        -0.00000003
   7        -0.00000009
   8         0.00000080
   9        -0.00000201
  10         0.00000280
  11        -0.00000248
  12         0.00000152
  13        -0.00000063
  14         0.00000013
  15        -0.05481179
  16         0.00156014
  17         0.05738294
  18        -0.40236274
  19         0.01145267
  20         0.42123706
  21        -0.31239208
  22         0.00889179
  23         0.32704599
  24        -0.01142017
  25         0.00032506
  26         0.01195588
  27         0.02943100
  28        -0.00083771
  29        -0.03081157
  30         0.07310349
  31        -0.00208079
  32        -0.07653268
  33         0.03535453
  34        -0.00100632
  35        -0.03701297
  36         0.00164041
  37        -0.00004669
  38        -0.00171736
  39         0.00001259
  40        -0.00000036
  41        -0.00001318
  42        -0.00000000
  43        -0.00000000
  44        -0.00000000
  45         0.00000000
  46         0.00000000
  47         0.00000000
  48         0.00000000
  49         0.00000000
  50        -0.00000000
  51        -0.00000000
  52        -0.00000000
  53        -0.00000000
  54         0.00000000
  55         0.00000000
  56        -0.00000000
  57         0.00000000
  58        -0.00000000
  59        -0.00000000
  60         0.00000000
  61         0.00000000
Sym=     4a  
Ene=     0.0000
Spin= Alpha
Occup=    0.00063
   1        -0.00000000
   2         0.00000000
   3        -0.00000000
   4         0.00000000
   5        -0.00000002
   6         0.00000007
   7        -0.00000017
   8         0.00000011
   9         0.00000020
  10        -0.00000048
  11         0.00000051
  12        -0.00000036
  13         0.00000014
  14         0.00000001
  15         0.00015278
  16         0.07934417
  17        -0.00201129
  18         0.00112150
  19         0.58245025
  20        -0.01476452
  21         0.00087072
  22         0.45221107
  23        -0.01146309
  24         0.00003183
  25         0.01653156
  26        -0.00041906
  27        -0.00008203
  28        -0.04260360
  29         0.00107996
  30        -0.00020376
  31        -0.10582280
  32         0.00268250
  33        -0.00009854
  34        -0.05117835
  35         0.00129732
  36        -0.00000457
  37        -0.00237461
  38         0.00006020
  39        -0.00000003
  40        -0.00001823
  41         0.00000046
  42         0.00000000
  43         0.00000000
  44        -0.00000000
  45         0.00000000
  46        -0.00000000
  47        -0.00000000
  48        -0.00000000
  49         0.00000000
  50        -0.00000000
  51         0.00000000
  52        -0.00000000
  53         0.00000000
  54        -0.00000000
  55        -0.00000000
  56        -0.00000000
  57         0.00000000
  58         0.00000000
  59         0.00000000
  60         0.00000000
  61        -0.00000000
Sym=     5a  
Ene=     0.0000
Spin= Alpha
Occup=    0.00063
   1        -0.00000000
   2         0.00000000
   3        -0.00000000
   4         0.00000000
   5        -0.00000004
   6         0.00000011
   7        -0.00000021
   8        -0.00000028
   9         0.00000144
  10        -0.00000229
  11         0.00000214
  12        -0.00000141
  13         0.00000059
  14        -0.00000006
  15         0.05740394
  16         0.00127852
  17         0.05479709
  18         0.42139124
  19         0.00938537
  20         0.40225484
  21         0.32716567
  22         0.00728675
  23         0.31230828
  24         0.01196025
  25         0.00026638
  26         0.01141711
  27        -0.03082284
  28        -0.00068650
  29        -0.02942310
  30        -0.07656069
  31        -0.00170519
  32        -0.07308388
  33        -0.03702651
  34        -0.00082467
  35        -0.03534505
  36        -0.00171798
  37        -0.00003826
  38        -0.00163997
  39        -0.00001319
  40        -0.00000029
  41        -0.00001259
  42         0.00000000
  43        -0.00000000
  44        -0.00000000
  45        -0.00000000
  46        -0.00000000
  47        -0.00000000
  48         0.00000000
  49         0.00000000
  50         0.00000000
  51         0.00000000
  52         0.00000000
  53        -0.00000000
  54         0.00000000
  55        -0.00000000
  56         0.00000000
  57         0.00000000
  58        -0.00000000
  59        -0.00000000
  60        -0.00000000
  61        -0.00000000
Sym=     6a  
Ene=     0.0000
Spin= Alpha
Occup=    0.00125
   1         0.00008481
   2         0.00069254
   3         0.00353055
   4         0.01697785
   5         0.06831802
   6         0.34102349
   7         0.74101855
   8        -0.19204846
   9        -0.79316661
  10        -0.18181586
  11         0.07952393
  12         0.19347997
  13         0.07025580
  14        -0.00026199
  15         0.00000000
  16         0.00000000
  17         0.00000000
  18         0.00000002
  19         0.00000001
  20         0.00000001
  21         0.00000003
  22         0.00000001
  23         0.00000001
  24         0.00000000
  25         0.00000000
  26         0.00000001
  27         0.00000001
  28         0.00000001
  29         0.00000001
  30         0.00000001
  31         0.00000001
  32         0.00000003
  33         0.00000000
  34         0.00000001
  35         0.00000001
  36        -0.00000000
  37        -0.00000000
  38        -0.00000000
  39         0.00000000
  40         0.00000000
  41         0.00000000
  42        -0.00000000
  43        -0.00000000
  44        -0.00000000
  45        -0.00000000
  46        -0.00000000
  47         0.00000000
  48         0.00000000
  49         0.00000000
  50         0.00000000
  51        -0.00000000
  52         0.00000000
  53         0.00000000
  54         0.00000000
  55         0.00000000
  56         0.00000000
  57        -0.00000000
  58         0.00000000
  59         0.00000000
  60        -0.00000000
  61         0.00000000
Sym=     7a  
Ene=     0.0000
Spin= Alpha
Occup=    0.06422
   1        -0.00000000
   2         0.00000000
   3        -0.00000000
   4         0.00000000
   5         0.00000000
   6         0.00000000
   7        -0.00000020
   8         0.00000088
   9        -0.00000210
  10         0.00000314
  11        -0.00000291
  12         0.00000167
  13        -0.00000051
  14         0.00000002
  15        -0.00078785
  16         0.00014932
  17         0.00082043
  18        -0.00499798
  19         0.00094726
  20         0.00520467
  21        -0.01423834
  22         0.00269858
  23         0.01482716
  24        -0.03443233
  25         0.00652592
  26         0.03585626
  27        -0.15398882
  28         0.02918530
  29         0.16035693
  30        -0.37069626
  31         0.07025758
  32         0.38602618
  33        -0.20591465
  34         0.03902674
  35         0.21443012
  36        -0.00404334
  37         0.00076633
  38         0.00421055
  39        -0.00141052
  40         0.00026734
  41         0.00146885
  42         0.00000000
  43         0.00000000
  44         0.00000000
  45        -0.00000000
  46         0.00000000
  47        -0.00000000
  48        -0.00000000
  49        -0.00000000
  50         0.00000001
  51         0.00000000
  52        -0.00000000
  53        -0.00000000
  54        -0.00000000
  55         0.00000000
  56         0.00000000
  57         0.00000000
  58         0.00000000
  59         0.00000000
  60        -0.00000000
  61        -0.00000000
Sym=     8a  
Ene=     0.0000
Spin= Alpha
Occup=    0.06422
   1        -0.00000000
   2         0.00000000
   3        -0.00000000
   4         0.00000000
   5        -0.00000001
   6         0.00000006
   7        -0.00000009
   8        -0.00000005
   9         0.00000039
  10        -0.00000083
  11         0.00000100
  12        -0.00000054
  13         0.00000008
  14        -0.00000002
  15         0.00005845
  16         0.00113578
  17        -0.00015059
  18         0.00037077
  19         0.00720525
  20        -0.00095532
  21         0.00105627
  22         0.02052646
  23        -0.00272154
  24         0.00255435
  25         0.04963874
  26        -0.00658145
  27         0.01142359
  28         0.22199517
  29        -0.02943365
  30         0.02749993
  31         0.53440743
  32        -0.07085543
  33         0.01527569
  34         0.29685305
  35        -0.03935883
  36         0.00029995
  37         0.00582901
  38        -0.00077285
  39         0.00010464
  40         0.00203345
  41        -0.00026961
  42        -0.00000000
  43        -0.00000000
  44        -0.00000000
  45        -0.00000000
  46         0.00000000
  47         0.00000000
  48         0.00000000
  49        -0.00000000
  50         0.00000000
  51        -0.00000001
  52         0.00000000
  53         0.00000000
  54         0.00000000
  55         0.00000000
  56        -0.00000000
  57        -0.00000000
  58        -0.00000000
  59        -0.00000000
  60        -0.00000000
  61         0.00000001
Sym=     9a  
Ene=     0.0000
Spin= Alpha
Occup=    0.06422
   1         0.00000000
   2         0.00000000
   3        -0.00000000
   4         0.00000000
   5        -0.00000002
   6         0.00000009
   7        -0.00000006
   8        -0.00000047
   9         0.00000152
  10        -0.00000275
  11         0.00000310
  12        -0.00000170
  13         0.00000026
  14        -0.00000002
  15         0.00083185
  16         0.00006162
  17         0.00078760
  18         0.00527716
  19         0.00039091
  20         0.00499645
  21         0.01503367
  22         0.00111363
  23         0.01423397
  24         0.03635566
  25         0.00269306
  26         0.03442175
  27         0.16259036
  28         0.01204394
  29         0.15394154
  30         0.39140272
  31         0.02899329
  32         0.37058246
  33         0.21741670
  34         0.01610522
  35         0.20585144
  36         0.00426919
  37         0.00031624
  38         0.00404209
  39         0.00148932
  40         0.00011032
  41         0.00141010
  42        -0.00000000
  43         0.00000000
  44         0.00000000
  45         0.00000000
  46         0.00000000
  47         0.00000000
  48        -0.00000001
  49        -0.00000000
  50        -0.00000001
  51        -0.00000000
  52         0.00000000
  53        -0.00000000
  54        -0.00000000
  55        -0.00000000
  56        -0.00000000
  57        -0.00000000
  58         0.00000000
  59         0.00000000
  60         0.00000000
  61         0.00000000
Sym=    10a  
Ene=     0.0275
Spin= Alpha
Occup=    0.00000
   1         0.00000000
   2        -0.00000000
   3         0.00000000
   4        -0.00000000
   5         0.00000000
   6        -0.00000000
   7         0.00000000
   8        -0.00000000
   9         0.00000001
  10        -0.00000001
  11         0.00000002
  12        -0.00000002
  13         0.00000000
  14         0.00000002
  15         0.00008904
  16         0.00002687
  17        -0.00009969
  18         0.00021069
  19         0.00006358
  20        -0.00023590
  21         0.00402779
  22         0.00121551
  23        -0.00450969
  24        -0.00453546
  25        -0.00136872
  26         0.00507810
  27         0.01731239
  28         0.00522456
  29        -0.01938369
  30        -0.07890195
  31        -0.02381114
  32         0.08834201
  33         0.12682245
  34         0.03827265
  35        -0.14199585
  36        -0.43550066
  37        -0.13142599
  38         0.48760521
  39         0.88487745
  40         0.26703954
  41        -0.99074675
  42         0.00000000
  43         0.00000000
  44         0.00000000
  45        -0.00000000
  46        -0.00000000
  47        -0.00000000
  48        -0.00000000
  49        -0.00000000
  50         0.00000000
  51         0.00000000
  52         0.00000000
  53        -0.00000000
  54        -0.00000000
  55         0.00000000
  56        -0.00000000
  57        -0.00000000
  58         0.00000000
  59        -0.00000000
  60         0.00000000
  61         0.00000000
Sym=    11a  
Ene=     0.0275
Spin= Alpha
Occup=    0.00000
   1         0.00000000
   2         0.00000000
   3         0.00000000
   4        -0.00000000
   5         0.00000000
   6        -0.00000000
   7         0.00000000
   8        -0.00000000
   9         0.00000000
  10        -0.00000002
  11         0.00000003
  12        -0.00000006
  13         0.00000019
  14        -0.00000022
  15         0.00003421
  16        -0.00013188
  17        -0.00000499
  18         0.00008095
  19        -0.00031207
  20        -0.00001182
  21         0.00154749
  22        -0.00596592
  23        -0.00022589
  24        -0.00174254
  25         0.00671787
  26         0.00025436
  27         0.00665148
  28        -0.02564289
  29        -0.00097091
  30        -0.03031439
  31         0.11686855
  32         0.00442495
  33         0.04872559
  34        -0.18784776
  35        -0.00711241
  36        -0.16732076
  37         0.64505792
  38         0.02442360
  39         0.33997278
  40        -1.31066899
  41        -0.04962539
  42        -0.00000000
  43        -0.00000000
  44         0.00000000
  45        -0.00000000
  46         0.00000000
  47         0.00000000
  48         0.00000000
  49        -0.00000000
  50         0.00000000
  51        -0.00000000
  52        -0.00000000
  53        -0.00000000
  54         0.00000000
  55        -0.00000000
  56        -0.00000000
  57         0.00000000
  58         0.00000000
  59        -0.00000000
  60         0.00000000
  61        -0.00000000
Sym=    12a  
Ene=     0.0275
Spin= Alpha
Occup=    0.00000
   1         0.00000000
   2         0.00000000
   3         0.00000000
   4         0.00000000
   5         0.00000000
   6         0.00000000
   7         0.00000000
   8         0.00000000
   9        -0.00000000
  10        -0.00000003
  11         0.00000004
  12        -0.00000010
  13         0.00000042
  14        -0.00000051
  15        -0.00009742
  16        -0.00002175
  17        -0.00009287
  18        -0.00023052
  19        -0.00005147
  20        -0.00021976
  21        -0.00440682
  22        -0.00098401
  23        -0.00420114
  24         0.00496226
  25         0.00110804
  26         0.00473066
  27        -0.01894153
  28        -0.00422952
  29        -0.01805747
  30         0.08632682
  31         0.01927620
  32         0.08229769
  33        -0.13875674
  34        -0.03098344
  35        -0.13228054
  36         0.47648234
  37         0.10639529
  38         0.45424346
  39        -0.96814656
  40        -0.21618060
  41        -0.92296022
  42        -0.00000000
  43         0.00000000
  44         0.00000000
  45         0.00000000
  46         0.00000000
  47        -0.00000000
  48        -0.00000000
  49        -0.00000000
  50        -0.00000000
  51        -0.00000000
  52         0.00000000
  53         0.00000000
  54         0.00000000
  55        -0.00000000
  56         0.00000000
  57        -0.00000000
  58        -0.00000000
  59        -0.00000000
  60        -0.00000000
  61        -0.00000000
Sym=    13a  
Ene=     0.0387
Spin= Alpha
Occup=    0.00000
   1         0.00000064
   2         0.00000160
   3         0.00003498
   4         0.00000539
   5         0.00071237
   6        -0.00012833
   7         0.01046595
   8        -0.00785570
   9         0.03441665
  10        -0.17751003
  11         0.28125996
  12        -0.64955551
  13         1.83757938
  14        -1.93618113
  15         0.00000000
  16         0.00000000
  17         0.00000000
  18         0.00000001
  19         0.00000000
  20         0.00000000
  21         0.00000002
  22         0.00000001
  23         0.00000001
  24         0.00000004
  25         0.00000001
  26         0.00000001
  27         0.00000005
  28         0.00000002
  29         0.00000002
  30        -0.00000001
  31        -0.00000003
  32        -0.00000004
  33         0.00000005
  34         0.00000004
  35         0.00000004
  36        -0.00000025
  37        -0.00000022
  38        -0.00000025
  39         0.00000030
  40         0.00000027
  41         0.00000031
  42        -0.00000000
  43        -0.00000000
  44        -0.00000000
  45        -0.00000000
  46        -0.00000000
  47         0.00000000
  48         0.00000000
  49         0.00000000
  50         0.00000000
  51         0.00000000
  52         0.00000000
  53         0.00000000
  54         0.00000000
  55         0.00000000
  56        -0.00000000
  57         0.00000000
  58         0.00000000
  59         0.00000000
  60         0.00000000
  61         0.00000000
Sym=    14a  
Ene=     0.1352
Spin= Alpha
Occup=    0.00000
   1         0.00000000
   2         0.00000000
   3        -0.00000000
   4         0.00000000
   5        -0.00000000
   6         0.00000000
   7        -0.00000000
   8         0.00000002
   9        -0.00000005
  10         0.00000008
  11        -0.00000021
  12         0.00000054
  13        -0.00000068
  14         0.00000035
  15        -0.00000217
  16        -0.00000053
  17        -0.00000534
  18        -0.00224055
  19        -0.00055215
  20        -0.00552339
  21        -0.00027032
  22        -0.00006662
  23        -0.00066640
  24        -0.02194245
  25        -0.00540742
  26        -0.05409244
  27         0.06307449
  28         0.01554385
  29         0.15549101
  30        -0.12662395
  31        -0.03120476
  32        -0.31215292
  33         0.60108222
  34         0.14812857
  35         1.48178572
  36        -0.96058929
  37        -0.23672422
  38        -2.36804126
  39         0.37951566
  40         0.09352650
  41         0.93558067
  42         0.00000000
  43         0.00000000
  44         0.00000000
  45         0.00000000
  46         0.00000000
  47        -0.00000000
  48        -0.00000000
  49        -0.00000000
  50        -0.00000000
  51        -0.00000000
  52         0.00000000
  53         0.00000000
  54         0.00000000
  55        -0.00000000
  56         0.00000000
  57        -0.00000001
  58        -0.00000000
  59        -0.00000000
  60         0.00000000
  61        -0.00000000
Sym=    15a  
Ene=     0.1352
Spin= Alpha
Occup=    0.00000
   1        -0.00000000
   2         0.00000000
   3        -0.00000000
   4         0.00000000
   5        -0.00000000
   6         0.00000000
   7        -0.00000000
   8         0.00000003
   9        -0.00000007
  10         0.00000012
  11        -0.00000020
  12         0.00000037
  13        -0.00000039
  14         0.00000016
  15        -0.00000525
  16         0.00000142
  17         0.00000199
  18        -0.00542663
  19         0.00147131
  20         0.00205422
  21        -0.00065472
  22         0.00017751
  23         0.00024784
  24        -0.05314476
  25         0.01440899
  26         0.02011761
  27         0.15276688
  28        -0.04141924
  29        -0.05782893
  30        -0.30668414
  31         0.08315038
  32         0.11609333
  33         1.45582550
  34        -0.39471373
  35        -0.55109347
  36        -2.32655424
  37         0.63079188
  38         0.88070230
  39         0.91918972
  40        -0.24921723
  41        -0.34795343
  42        -0.00000000
  43         0.00000000
  44        -0.00000000
  45         0.00000000
  46         0.00000000
  47         0.00000000
  48        -0.00000000
  49         0.00000000
  50        -0.00000000
  51        -0.00000000
  52        -0.00000000
  53         0.00000000
  54        -0.00000000
  55        -0.00000000
  56         0.00000000
  57         0.00000000
  58        -0.00000001
  59         0.00000000
  60        -0.00000000
  61        -0.00000000
Sym=    16a  
Ene=     0.1352
Spin= Alpha
Occup=    0.00000
   1        -0.00000000
   2         0.00000000
   3        -0.00000000
   4         0.00000000
   5        -0.00000000
   6         0.00000000
   7        -0.00000000
   8         0.00000001
   9        -0.00000004
  10         0.00000007
  11        -0.00000014
  12         0.00000032
  13        -0.00000040
  14         0.00000021
  15        -0.00000113
  16        -0.00000559
  17         0.00000102
  18        -0.00116811
  19        -0.00577609
  20         0.00105125
  21        -0.00014093
  22        -0.00069689
  23         0.00012683
  24        -0.01143968
  25        -0.05656717
  26         0.01029528
  27         0.03288384
  28         0.16260471
  29        -0.02959422
  30        -0.06601530
  31        -0.32643389
  32         0.05941130
  33         0.31337376
  34         1.54957730
  35        -0.28202463
  36        -0.50080250
  37        -2.47637897
  38         0.45070347
  39         0.19786021
  40         0.97838342
  41        -0.17806677
  42        -0.00000000
  43        -0.00000000
  44         0.00000000
  45        -0.00000000
  46         0.00000000
  47         0.00000000
  48        -0.00000000
  49        -0.00000000
  50         0.00000000
  51        -0.00000000
  52        -0.00000000
  53         0.00000000
  54         0.00000000
  55        -0.00000000
  56        -0.00000000
  57         0.00000000
  58        -0.00000000
  59        -0.00000001
  60         0.00000000
  61        -0.00000000
Sym=    17a  
Ene=     0.1841
Spin= Alpha
Occup=    0.00000
   1         0.00000000
   2         0.00000000
   3         0.00000000
   4        -0.00000000
   5         0.00000000
   6        -0.00000000
   7         0.00000000
   8        -0.00000000
   9         0.00000000
  10        -0.00000000
  11         0.00000000
  12        -0.00000000
  13         0.00000000
  14        -0.00000000
  15        -0.00000000
  16         0.00000000
  17         0.00000000
  18        -0.00000000
  19         0.00000000
  20         0.00000000
  21         0.00000000
  22         0.00000000
  23         0.00000000
  24        -0.00000000
  25         0.00000000
  26         0.00000000
  27         0.00000000
  28         0.00000000
  29        -0.00000000
  30        -0.00000000
  31         0.00000000
  32         0.00000000
  33         0.00000001
  34        -0.00000000
  35        -0.00000001
  36        -0.00000001
  37        -0.00000000
  38         0.00000002
  39         0.00000000
  40         0.00000000
  41        -0.00000001
  42         0.00685300
  43        -0.00435057
  44         0.00463054
  45         0.00333960
  46        -0.00439798
  47        -0.04336922
  48         0.02753263
  49        -0.02930437
  50        -0.02113470
  51         0.02783267
  52         0.13272124
  53        -0.08425709
  54         0.08967907
  55         0.06467775
  56        -0.08517528
  57        -0.70174760
  58         0.44549923
  59        -0.47416733
  60        -0.34197586
  61         0.45035407
Sym=    18a  
Ene=     0.1841
Spin= Alpha
Occup=    0.00000
   1        -0.00000000
   2        -0.00000000
   3        -0.00000000
   4        -0.00000000
   5        -0.00000000
   6         0.00000000
   7        -0.00000000
   8         0.00000000
   9        -0.00000000
  10         0.00000000
  11        -0.00000000
  12         0.00000000
  13        -0.00000000
  14         0.00000000
  15        -0.00000000
  16        -0.00000000
  17         0.00000000
  18        -0.00000000
  19        -0.00000000
  20         0.00000000
  21        -0.00000000
  22        -0.00000000
  23         0.00000000
  24        -0.00000000
  25        -0.00000000
  26         0.00000000
  27        -0.00000000
  28         0.00000000
  29         0.00000000
  30        -0.00000000
  31        -0.00000000
  32         0.00000000
  33         0.00000000
  34         0.00000001
  35        -0.00000000
  36        -0.00000000
  37        -0.00000001
  38         0.00000000
  39         0.00000000
  40         0.00000000
  41        -0.00000000
  42         0.00202044
  43        -0.00575062
  44        -0.00295459
  45         0.00293801
  46         0.00795706
  47        -0.01278634
  48         0.03639286
  49         0.01869815
  50        -0.01859322
  51        -0.05035627
  52         0.03912956
  53        -0.11137173
  54        -0.05722127
  55         0.05690015
  56         0.15410345
  57        -0.20689286
  58         0.58886465
  59         0.30255060
  60        -0.30085272
  61        -0.81480350
Sym=    19a  
Ene=     0.1841
Spin= Alpha
Occup=    0.00000
   1         0.00000000
   2         0.00000000
   3         0.00000000
   4        -0.00000000
   5         0.00000000
   6        -0.00000000
   7         0.00000000
   8        -0.00000000
   9         0.00000000
  10        -0.00000000
  11         0.00000000
  12        -0.00000001
  13         0.00000001
  14        -0.00000000
  15        -0.00000000
  16        -0.00000000
  17        -0.00000000
  18         0.00000000
  19        -0.00000000
  20        -0.00000000
  21        -0.00000000
  22        -0.00000000
  23        -0.00000000
  24         0.00000000
  25        -0.00000000
  26        -0.00000000
  27        -0.00000000
  28         0.00000000
  29        -0.00000000
  30         0.00000000
  31        -0.00000000
  32         0.00000000
  33        -0.00000001
  34         0.00000001
  35         0.00000000
  36         0.00000001
  37        -0.00000001
  38         0.00000000
  39        -0.00000000
  40         0.00000000
  41        -0.00000000
  42         0.00369245
  43         0.00699684
  44        -0.00326999
  45         0.00665930
  46         0.00044605
  47        -0.02336772
  48        -0.04427957
  49         0.02069412
  50        -0.04214343
  51        -0.00282286
  52         0.07151136
  53         0.13550713
  54        -0.06332947
  55         0.12896998
  56         0.00863868
  57        -0.37810775
  58        -0.71647765
  59         0.33484694
  60        -0.68191330
  61        -0.04567599
Sym=    20a  
Ene=     0.1841
Spin= Alpha
Occup=    0.00000
   1        -0.00000000
   2        -0.00000000
   3        -0.00000000
   4        -0.00000000
   5        -0.00000000
   6         0.00000000
   7        -0.00000000
   8         0.00000000
   9        -0.00000000
  10         0.00000000
  11        -0.00000000
  12         0.00000000
  13        -0.00000000
  14         0.00000000
  15         0.00000000
  16         0.00000000
  17         0.00000000
  18        -0.00000000
  19        -0.00000000
  20        -0.00000000
  21         0.00000000
  22         0.00000000
  23         0.00000000
  24        -0.00000000
  25        -0.00000000
  26        -0.00000000
  27         0.00000000
  28         0.00000000
  29         0.00000000
  30        -0.00000000
  31        -0.00000000
  32        -0.00000000
  33         0.00000000
  34         0.00000001
  35         0.00000000
  36        -0.00000001
  37        -0.00000001
  38        -0.00000000
  39         0.00000000
  40         0.00000000
  41         0.00000000
  42         0.00259042
  43        -0.00251772
  44        -0.00867757
  45        -0.00273799
  46        -0.00468850
  47        -0.01639349
  48         0.01593341
  49         0.05491607
  50         0.01732741
  51         0.02967121
  52         0.05016839
  53        -0.04876041
  54        -0.16805762
  55        -0.05302644
  56        -0.09080171
  57        -0.26525933
  58         0.25781483
  59         0.88858446
  60         0.28037091
  61         0.48010313
Sym=    21a  
Ene=     0.1841
Spin= Alpha
Occup=    0.00000
   1        -0.00000000
   2        -0.00000000
   3        -0.00000000
   4        -0.00000000
   5        -0.00000000
   6         0.00000000
   7        -0.00000000
   8         0.00000000
   9        -0.00000000
  10         0.00000000
  11        -0.00000000
  12         0.00000000
  13        -0.00000000
  14         0.00000000
  15        -0.00000000
  16         0.00000000
  17         0.00000000
  18        -0.00000000
  19        -0.00000000
  20        -0.00000000
  21        -0.00000000
  22         0.00000000
  23         0.00000000
  24        -0.00000000
  25        -0.00000000
  26        -0.00000000
  27         0.00000000
  28         0.00000000
  29         0.00000000
  30        -0.00000000
  31        -0.00000000
  32        -0.00000000
  33         0.00000001
  34         0.00000000
  35         0.00000001
  36        -0.00000001
  37        -0.00000000
  38        -0.00000001
  39         0.00000000
  40         0.00000000
  41         0.00000000
  42        -0.00681454
  43        -0.00324595
  44        -0.00128980
  45         0.00679708
  46        -0.00360418
  47         0.04312583
  48         0.02054202
  49         0.00816248
  50        -0.04301538
  51         0.02280906
  52        -0.13197639
  53        -0.06286400
  54        -0.02497933
  55         0.13163838
  56        -0.06980172
  57         0.69780933
  58         0.33238585
  59         0.13207520
  60        -0.69602210
  61         0.36906822
Sym=    22a  
Ene=     0.2551
Spin= Alpha
Occup=    0.00000
   1         0.00000079
   2         0.00002272
   3        -0.00000463
   4         0.00069151
   5        -0.00059768
   6         0.01161663
   7        -0.00775554
   8         0.11590287
   9        -0.28725443
  10         0.46476749
  11        -1.77782945
  12         4.46132835
  13        -4.43863008
  14         1.40431212
  15        -0.00000000
  16        -0.00000000
  17         0.00000000
  18         0.00000000
  19         0.00000000
  20         0.00000000
  21        -0.00000001
  22        -0.00000000
  23         0.00000000
  24         0.00000001
  25         0.00000001
  26         0.00000002
  27        -0.00000008
  28        -0.00000003
  29        -0.00000003
  30         0.00000014
  31         0.00000007
  32         0.00000010
  33        -0.00000060
  34        -0.00000027
  35        -0.00000036
  36         0.00000048
  37         0.00000022
  38         0.00000030
  39        -0.00000015
  40        -0.00000007
  41        -0.00000009
  42        -0.00000000
  43         0.00000000
  44         0.00000000
  45        -0.00000000
  46         0.00000000
  47        -0.00000000
  48        -0.00000000
  49        -0.00000000
  50        -0.00000000
  51        -0.00000000
  52         0.00000000
  53         0.00000000
  54         0.00000000
  55         0.00000000
  56         0.00000000
  57        -0.00000000
  58        -0.00000000
  59        -0.00000000
  60        -0.00000000
  61        -0.00000000
Sym=    23a  
Ene=     0.5116
Spin= Alpha
Occup=    0.00000
   1         0.00000000
   2        -0.00000000
   3         0.00000000
   4        -0.00000000
   5         0.00000000
   6        -0.00000000
   7         0.00000002
   8        -0.00000007
   9         0.00000020
  10        -0.00000040
  11         0.00000046
  12        -0.00000026
  13         0.00000007
  14        -0.00000002
  15         0.00136236
  16         0.00010950
  17        -0.00140067
  18         0.00078214
  19         0.00006286
  20        -0.00080413
  21         0.06254722
  22         0.00502716
  23        -0.06430594
  24        -0.09491711
  25        -0.00762885
  26         0.09758603
  27         0.39336799
  28         0.03161647
  29        -0.40442886
  30        -1.77583110
  31        -0.14273026
  32         1.82576458
  33         2.46825563
  34         0.19838304
  35        -2.53765896
  36        -1.32635379
  37        -0.10660407
  38         1.36364870
  39         0.35227323
  40         0.02831353
  41        -0.36217858
  42        -0.00000000
  43         0.00000000
  44        -0.00000000
  45        -0.00000000
  46         0.00000000
  47        -0.00000000
  48        -0.00000000
  49         0.00000000
  50         0.00000000
  51        -0.00000000
  52        -0.00000001
  53        -0.00000000
  54        -0.00000000
  55         0.00000001
  56         0.00000001
  57         0.00000000
  58         0.00000000
  59         0.00000000
  60        -0.00000000
  61        -0.00000000
Sym=    24a  
Ene=     0.5116
Spin= Alpha
Occup=    0.00000
   1         0.00000000
   2        -0.00000000
   3         0.00000000
   4        -0.00000000
   5         0.00000000
   6        -0.00000000
   7         0.00000000
   8        -0.00000001
   9         0.00000002
  10        -0.00000004
  11         0.00000006
  12        -0.00000007
  13         0.00000003
  14         0.00000001
  15         0.00048299
  16        -0.00186864
  17         0.00032370
  18         0.00027729
  19        -0.00107280
  20         0.00018584
  21         0.02217470
  22        -0.08579103
  23         0.01486147
  24        -0.03365072
  25         0.13019022
  26        -0.02255269
  27         0.13945974
  28        -0.53955149
  29         0.09346584
  30        -0.62958084
  31         2.43576580
  32        -0.42194473
  33         0.87506432
  34        -3.38550925
  35         0.58646762
  36        -0.47022880
  37         1.81925363
  38        -0.31514708
  39         0.12489053
  40        -0.48318509
  41         0.08370156
  42         0.00000000
  43        -0.00000000
  44         0.00000000
  45         0.00000000
  46         0.00000000
  47        -0.00000000
  48         0.00000000
  49        -0.00000000
  50        -0.00000000
  51        -0.00000000
  52         0.00000000
  53         0.00000000
  54        -0.00000000
  55         0.00000001
  56        -0.00000001
  57        -0.00000000
  58        -0.00000000
  59         0.00000000
  60        -0.00000000
  61         0.00000000
Sym=    25a  
Ene=     0.5116
Spin= Alpha
Occup=    0.00000
   1        -0.00000000
   2         0.00000000
   3        -0.00000000
   4         0.00000000
   5        -0.00000000
   6         0.00000000
   7        -0.00000001
   8         0.00000003
   9        -0.00000012
  10         0.00000021
  11        -0.00000001
  12        -0.00000044
  13         0.00000042
  14        -0.00000005
  15        -0.00131931
  16        -0.00057103
  17        -0.00132787
  18        -0.00075742
  19        -0.00032783
  20        -0.00076234
  21        -0.06057070
  22        -0.02621657
  23        -0.06096362
  24         0.09191769
  25         0.03978436
  26         0.09251397
  27        -0.38093738
  28        -0.16487960
  29        -0.38340855
  30         1.71971400
  31         0.74433693
  32         1.73086993
  33        -2.39025757
  34        -1.03456562
  35        -2.40576338
  36         1.28444038
  37         0.55593919
  38         1.29277265
  39        -0.34114124
  40        -0.14765480
  41        -0.34335425
  42        -0.00000000
  43         0.00000000
  44        -0.00000000
  45         0.00000000
  46        -0.00000000
  47         0.00000000
  48        -0.00000000
  49         0.00000000
  50        -0.00000000
  51         0.00000000
  52         0.00000000
  53        -0.00000001
  54        -0.00000001
  55        -0.00000000
  56        -0.00000001
  57        -0.00000000
  58         0.00000000
  59         0.00000000
  60         0.00000000
  61         0.00000000
Sym=    26a  
Ene=     0.6030
Spin= Alpha
Occup=    0.00000
   1        -0.00000000
   2        -0.00000000
   3        -0.00000000
   4        -0.00000000
   5        -0.00000000
   6        -0.00000000
   7        -0.00000000
   8        -0.00000000
   9         0.00000000
  10        -0.00000000
  11         0.00000000
  12        -0.00000001
  13         0.00000000
  14        -0.00000000
  15        -0.00000000
  16         0.00000000
  17         0.00000000
  18        -0.00000000
  19         0.00000000
  20         0.00000000
  21        -0.00000000
  22         0.00000000
  23         0.00000000
  24         0.00000000
  25        -0.00000000
  26        -0.00000000
  27        -0.00000000
  28         0.00000000
  29         0.00000000
  30         0.00000001
  31        -0.00000001
  32        -0.00000001
  33        -0.00000001
  34         0.00000001
  35         0.00000001
  36         0.00000001
  37        -0.00000001
  38        -0.00000001
  39        -0.00000000
  40         0.00000000
  41         0.00000000
  42         0.02417170
  43        -0.02008481
  44        -0.00994139
  45         0.03514254
  46         0.00683596
  47        -0.07935745
  48         0.06593991
  49         0.03263833
  50        -0.11537553
  51        -0.02244295
  52         0.69258166
  53        -0.57548182
  54        -0.28484666
  55         1.00692462
  56         0.19586787
  57        -0.36074324
  58         0.29974975
  59         0.14836735
  60        -0.52447426
  61        -0.10202120
Sym=    27a  
Ene=     0.6030
Spin= Alpha
Occup=    0.00000
   1        -0.00000000
   2        -0.00000000
   3        -0.00000000
   4        -0.00000000
   5        -0.00000000
   6        -0.00000000
   7        -0.00000000
   8        -0.00000000
   9         0.00000000
  10        -0.00000000
  11         0.00000000
  12        -0.00000000
  13         0.00000000
  14        -0.00000000
  15         0.00000000
  16         0.00000000
  17        -0.00000000
  18         0.00000000
  19         0.00000000
  20        -0.00000000
  21         0.00000000
  22         0.00000000
  23        -0.00000000
  24        -0.00000000
  25        -0.00000000
  26         0.00000000
  27         0.00000000
  28         0.00000000
  29        -0.00000000
  30        -0.00000001
  31        -0.00000002
  32         0.00000001
  33         0.00000001
  34         0.00000002
  35        -0.00000001
  36        -0.00000001
  37        -0.00000001
  38         0.00000001
  39         0.00000000
  40         0.00000000
  41        -0.00000000
  42         0.01045444
  43        -0.00047557
  44         0.02204834
  45         0.00685508
  46        -0.04154019
  47        -0.03432269
  48         0.00156133
  49        -0.07238632
  50        -0.02250574
  51         0.13637948
  52         0.29954669
  53        -0.01362629
  54         0.63174203
  55         0.19641585
  56        -1.19023386
  57        -0.15602412
  58         0.00709749
  59        -0.32905386
  60        -0.10230663
  61         0.61995408
Sym=    28a  
Ene=     0.6030
Spin= Alpha
Occup=    0.00000
   1        -0.00000000
   2        -0.00000000
   3        -0.00000000
   4        -0.00000000
   5        -0.00000000
   6        -0.00000000
   7        -0.00000000
   8        -0.00000000
   9         0.00000000
  10        -0.00000000
  11         0.00000000
  12        -0.00000000
  13         0.00000000
  14        -0.00000000
  15         0.00000000
  16        -0.00000000
  17        -0.00000000
  18        -0.00000000
  19         0.00000000
  20         0.00000000
  21         0.00000000
  22        -0.00000000
  23        -0.00000000
  24        -0.00000000
  25         0.00000000
  26         0.00000000
  27         0.00000000
  28        -0.00000000
  29        -0.00000000
  30        -0.00000002
  31         0.00000001
  32         0.00000002
  33         0.00000002
  34        -0.00000001
  35        -0.00000002
  36        -0.00000001
  37         0.00000000
  38         0.00000001
  39         0.00000000
  40        -0.00000000
  41        -0.00000000
  42         0.03997450
  43         0.01166811
  44         0.00922387
  45        -0.02044431
  46         0.01144880
  47        -0.13123921
  48        -0.03830727
  49        -0.03028265
  50         0.06712018
  51        -0.03758727
  52         1.14537278
  53         0.33432163
  54         0.26428779
  55        -0.58578243
  56         0.32803789
  57        -0.59658740
  58        -0.17413725
  59        -0.13765891
  60         0.30511500
  61        -0.17086426
Sym=    29a  
Ene=     0.6030
Spin= Alpha
Occup=    0.00000
   1        -0.00000000
   2        -0.00000000
   3        -0.00000000
   4        -0.00000000
   5        -0.00000000
   6        -0.00000000
   7        -0.00000000
   8        -0.00000000
   9         0.00000000
  10        -0.00000000
  11         0.00000001
  12        -0.00000001
  13         0.00000000
  14        -0.00000000
  15        -0.00000000
  16         0.00000000
  17        -0.00000000
  18         0.00000000
  19         0.00000000
  20         0.00000000
  21        -0.00000000
  22         0.00000000
  23        -0.00000000
  24         0.00000000
  25        -0.00000000
  26         0.00000000
  27        -0.00000000
  28         0.00000000
  29        -0.00000000
  30         0.00000002
  31        -0.00000001
  32         0.00000002
  33        -0.00000002
  34         0.00000001
  35        -0.00000002
  36         0.00000001
  37        -0.00000000
  38         0.00000001
  39        -0.00000000
  40         0.00000000
  41        -0.00000000
  42        -0.00073211
  43         0.04229368
  44        -0.00087970
  45         0.02388083
  46         0.00280552
  47         0.00240358
  48        -0.13885324
  49         0.00288810
  50        -0.07840253
  51        -0.00921073
  52        -0.02097693
  53         1.21182327
  54        -0.02520555
  55         0.68424769
  56         0.08038544
  57         0.01092620
  58        -0.63119930
  59         0.01312875
  60        -0.35640235
  61        -0.04187016
Sym=    30a  
Ene=     0.6030
Spin= Alpha
Occup=    0.00000
   1         0.00000000
   2         0.00000000
   3         0.00000000
   4         0.00000000
   5         0.00000000
   6         0.00000000
   7         0.00000000
   8         0.00000000
   9        -0.00000000
  10         0.00000000
  11        -0.00000000
  12         0.00000000
  13        -0.00000000
  14         0.00000000
  15         0.00000000
  16         0.00000000
  17         0.00000000
  18         0.00000000
  19        -0.00000000
  20         0.00000000
  21         0.00000000
  22         0.00000000
  23         0.00000000
  24        -0.00000000
  25        -0.00000000
  26        -0.00000000
  27         0.00000000
  28         0.00000000
  29         0.00000000
  30        -0.00000001
  31        -0.00000002
  32        -0.00000001
  33         0.00000001
  34         0.00000002
  35         0.00000001
  36        -0.00000001
  37        -0.00000001
  38        -0.00000000
  39         0.00000000
  40         0.00000000
  41         0.00000000
  42         0.00872740
  43         0.00630114
  44        -0.04119971
  45        -0.00989828
  46        -0.02137678
  47        -0.02865269
  48        -0.02068711
  49         0.13526166
  50         0.03249678
  51         0.07018152
  52         0.25006259
  53         0.18054398
  54        -1.18047819
  55        -0.28361129
  56        -0.61249994
  57        -0.13024946
  58        -0.09403948
  59         0.61487267
  60         0.14772389
  61         0.31903128
Sym=    31a  
Ene=     1.0957
Spin= Alpha
Occup=    0.00000
   1        -0.00000794
   2         0.00000539
   3        -0.00049069
   4         0.00076439
   5        -0.01063181
   6         0.01610649
   7        -0.15719167
   8         0.25844351
   9        -0.95349261
  10         3.85546613
  11        -6.94731135
  12         6.04017915
  13        -2.73030077
  14         0.67576502
  15         0.00000000
  16         0.00000000
  17        -0.00000000
  18         0.00000001
  19         0.00000000
  20         0.00000000
  21         0.00000007
  22         0.00000001
  23        -0.00000001
  24         0.00000001
  25         0.00000001
  26         0.00000002
  27         0.00000068
  28         0.00000013
  29        -0.00000009
  30        -0.00000069
  31        -0.00000008
  32         0.00000024
  33         0.00000072
  34         0.00000012
  35        -0.00000013
  36        -0.00000029
  37        -0.00000005
  38         0.00000006
  39         0.00000007
  40         0.00000001
  41        -0.00000002
  42         0.00000000
  43         0.00000000
  44         0.00000000
  45         0.00000000
  46         0.00000000
  47        -0.00000000
  48         0.00000000
  49         0.00000000
  50        -0.00000000
  51         0.00000000
  52         0.00000000
  53         0.00000000
  54         0.00000000
  55         0.00000000
  56         0.00000000
  57        -0.00000000
  58        -0.00000000
  59        -0.00000000
  60        -0.00000000
  61         0.00000000
Sym=    32a  
Ene=     1.6734
Spin= Alpha
Occup=    0.00000
   1         0.00000000
   2         0.00000000
   3         0.00000000
   4         0.00000000
   5        -0.00000000
   6         0.00000002
   7        -0.00000002
   8         0.00000022
   9        -0.00000055
  10         0.00000021
  11         0.00000070
  12        -0.00000088
  13         0.00000039
  14        -0.00000008
  15         0.00087893
  16         0.00003178
  17        -0.00087304
  18        -0.04751253
  19        -0.00171779
  20         0.04719424
  21         0.04164834
  22         0.00150577
  23        -0.04136934
  24        -0.67536075
  25        -0.02441725
  26         0.67083641
  27         2.27009794
  28         0.08207399
  29        -2.25489021
  30        -2.53661269
  31        -0.09170966
  32         2.51961953
  33         1.52153164
  34         0.05501004
  35        -1.51133866
  36        -0.67499122
  37        -0.02440389
  38         0.67046935
  39         0.17195136
  40         0.00621680
  41        -0.17079943
  42        -0.00000000
  43        -0.00000000
  44        -0.00000000
  45         0.00000000
  46         0.00000000
  47         0.00000003
  48         0.00000004
  49         0.00000001
  50        -0.00000004
  51        -0.00000001
  52        -0.00000003
  53        -0.00000003
  54        -0.00000000
  55         0.00000003
  56         0.00000001
  57         0.00000001
  58         0.00000001
  59         0.00000000
  60        -0.00000001
  61        -0.00000000
Sym=    33a  
Ene=     1.6734
Spin= Alpha
Occup=    0.00000
   1         0.00000000
   2         0.00000000
   3         0.00000000
   4         0.00000000
   5        -0.00000000
   6         0.00000001
   7        -0.00000001
   8         0.00000017
   9        -0.00000047
  10         0.00000028
  11         0.00000045
  12        -0.00000071
  13         0.00000033
  14        -0.00000003
  15         0.00087346
  16        -0.00005592
  17         0.00087731
  18        -0.04721665
  19         0.00302309
  20        -0.04742506
  21         0.04138898
  22        -0.00264997
  23         0.04157167
  24        -0.67115499
  25         0.04297135
  26        -0.67411740
  27         2.25596107
  28        -0.14444008
  29         2.26591866
  30        -2.52081610
  31         0.16139768
  32        -2.53194275
  33         1.51205640
  34        -0.09681087
  35         1.51873047
  36        -0.67078775
  37         0.04294783
  38        -0.67374854
  39         0.17088053
  40        -0.01094079
  41         0.17163478
  42        -0.00000000
  43         0.00000000
  44         0.00000000
  45         0.00000000
  46         0.00000000
  47         0.00000002
  48        -0.00000005
  49        -0.00000001
  50        -0.00000004
  51        -0.00000000
  52        -0.00000001
  53         0.00000004
  54         0.00000000
  55         0.00000003
  56         0.00000000
  57         0.00000000
  58        -0.00000001
  59        -0.00000000
  60        -0.00000001
  61        -0.00000000
Sym=    34a  
Ene=     1.6734
Spin= Alpha
Occup=    0.00000
   1         0.00000000
   2         0.00000000
   3         0.00000000
   4         0.00000000
   5         0.00000000
   6         0.00000000
   7         0.00000001
   8         0.00000003
   9        -0.00000011
  10         0.00000005
  11         0.00000018
  12        -0.00000025
  13         0.00000011
  14         0.00000000
  15         0.00001690
  16         0.00123758
  17         0.00006206
  18        -0.00091366
  19        -0.06689991
  20        -0.00335486
  21         0.00080089
  22         0.05864286
  23         0.00294079
  24        -0.01298713
  25        -0.95094015
  26        -0.04768724
  27         0.04365378
  28         3.19640608
  29         0.16029168
  30        -0.04877883
  31        -3.57167152
  32        -0.17911029
  33         0.02925892
  34         2.14238901
  35         0.10743539
  36        -0.01298002
  37        -0.95041978
  38        -0.04766115
  39         0.00330661
  40         0.24211569
  41         0.01214149
  42        -0.00000000
  43         0.00000000
  44         0.00000000
  45        -0.00000000
  46         0.00000001
  47         0.00000000
  48        -0.00000000
  49        -0.00000001
  50         0.00000001
  51        -0.00000006
  52        -0.00000000
  53         0.00000000
  54         0.00000001
  55        -0.00000001
  56         0.00000005
  57         0.00000000
  58        -0.00000000
  59        -0.00000000
  60         0.00000000
  61        -0.00000002
Sym=    35a  
Ene=     1.7499
Spin= Alpha
Occup=    0.00000
   1         0.00000000
   2         0.00000000
   3         0.00000000
   4         0.00000000
   5         0.00000000
   6        -0.00000000
   7         0.00000000
   8        -0.00000000
   9         0.00000000
  10        -0.00000000
  11         0.00000000
  12        -0.00000000
  13         0.00000000
  14        -0.00000000
  15         0.00000000
  16        -0.00000000
  17        -0.00000000
  18        -0.00000000
  19         0.00000000
  20         0.00000000
  21         0.00000000
  22        -0.00000000
  23        -0.00000000
  24        -0.00000001
  25         0.00000002
  26         0.00000001
  27         0.00000004
  28        -0.00000006
  29        -0.00000002
  30        -0.00000004
  31         0.00000006
  32         0.00000002
  33         0.00000002
  34        -0.00000004
  35        -0.00000001
  36        -0.00000001
  37         0.00000002
  38         0.00000000
  39         0.00000000
  40        -0.00000000
  41        -0.00000000
  42        -0.02135983
  43         0.02810143
  44        -0.07864898
  45        -0.05563085
  46         0.05408875
  47         0.26963672
  48        -0.35473961
  49         0.99282873
  50         0.70225847
  51        -0.68279164
  52        -0.20030578
  53         0.26352641
  54        -0.73754545
  55        -0.52168871
  56         0.50722733
  57         0.06948082
  58        -0.09141039
  59         0.25583516
  60         0.18096012
  61        -0.17594385
Sym=    36a  
Ene=     1.7499
Spin= Alpha
Occup=    0.00000
   1         0.00000000
   2         0.00000000
   3         0.00000000
   4         0.00000000
   5         0.00000000
   6         0.00000000
   7         0.00000000
   8         0.00000000
   9        -0.00000000
  10        -0.00000000
  11         0.00000000
  12        -0.00000000
  13         0.00000000
  14        -0.00000000
  15         0.00000000
  16         0.00000000
  17        -0.00000000
  18        -0.00000000
  19        -0.00000000
  20         0.00000000
  21         0.00000000
  22         0.00000000
  23        -0.00000000
  24        -0.00000001
  25        -0.00000002
  26         0.00000002
  27         0.00000003
  28         0.00000006
  29        -0.00000007
  30        -0.00000004
  31        -0.00000006
  32         0.00000008
  33         0.00000002
  34         0.00000004
  35        -0.00000005
  36        -0.00000001
  37        -0.00000002
  38         0.00000002
  39         0.00000000
  40         0.00000000
  41        -0.00000001
  42        -0.03609375
  43         0.06720205
  44         0.02905675
  45        -0.05388127
  46        -0.06233473
  47         0.45563102
  48        -0.84832798
  49        -0.36679909
  50         0.68017248
  51         0.78688516
  52        -0.33847588
  53         0.63019977
  54         0.27248507
  55        -0.50528163
  56        -0.58455557
  57         0.11740840
  58        -0.21859976
  59        -0.09451792
  60         0.17526893
  61         0.20276698
Sym=    37a  
Ene=     1.7499
Spin= Alpha
Occup=    0.00000
   1         0.00000000
   2         0.00000000
   3         0.00000000
   4         0.00000000
   5         0.00000000
   6        -0.00000000
   7         0.00000000
   8        -0.00000000
   9         0.00000000
  10        -0.00000000
  11         0.00000000
  12        -0.00000000
  13         0.00000000
  14        -0.00000000
  15         0.00000000
  16        -0.00000000
  17         0.00000000
  18        -0.00000000
  19         0.00000000
  20        -0.00000000
  21         0.00000000
  22        -0.00000000
  23         0.00000000
  24        -0.00000002
  25         0.00000000
  26        -0.00000003
  27         0.00000007
  28        -0.00000001
  29         0.00000011
  30        -0.00000007
  31         0.00000001
  32        -0.00000011
  33         0.00000004
  34        -0.00000001
  35         0.00000007
  36        -0.00000002
  37         0.00000000
  38        -0.00000003
  39         0.00000000
  40        -0.00000000
  41         0.00000001
  42        -0.03870777
  43        -0.08575401
  44         0.02206645
  45        -0.06397825
  46        -0.00444902
  47         0.48862919
  48         1.08251937
  49        -0.27855677
  50         0.80763212
  51         0.05616238
  52        -0.36298933
  53        -0.80417419
  54         0.20693224
  55        -0.59996793
  56        -0.04172150
  57         0.12591147
  58         0.27894692
  59        -0.07177936
  60         0.20811313
  61         0.01447209
Sym=    38a  
Ene=     1.7499
Spin= Alpha
Occup=    0.00000
   1         0.00000000
   2         0.00000000
   3         0.00000000
   4         0.00000000
   5         0.00000000
   6        -0.00000000
   7         0.00000000
   8        -0.00000000
   9         0.00000000
  10        -0.00000000
  11         0.00000000
  12        -0.00000000
  13         0.00000000
  14        -0.00000000
  15         0.00000000
  16         0.00000000
  17         0.00000000
  18        -0.00000000
  19        -0.00000000
  20        -0.00000000
  21         0.00000000
  22         0.00000000
  23         0.00000000
  24        -0.00000001
  25        -0.00000003
  26        -0.00000001
  27         0.00000003
  28         0.00000011
  29         0.00000004
  30        -0.00000003
  31        -0.00000012
  32        -0.00000004
  33         0.00000002
  34         0.00000007
  35         0.00000002
  36        -0.00000001
  37        -0.00000003
  38        -0.00000001
  39         0.00000000
  40         0.00000001
  41         0.00000000
  42         0.02315518
  43        -0.02791997
  44        -0.07444909
  45         0.00337755
  46        -0.08113087
  47        -0.29230034
  48         0.35244889
  49         0.93981124
  50        -0.04263660
  51         1.02415900
  52         0.21714197
  53        -0.26182469
  54        -0.69816020
  55         0.03167357
  56        -0.76081985
  57        -0.07532085
  58         0.09082011
  59         0.24217345
  60        -0.01098673
  61         0.26390844
Sym=    39a  
Ene=     1.7499
Spin= Alpha
Occup=    0.00000
   1        -0.00000000
   2         0.00000000
   3         0.00000000
   4         0.00000000
   5         0.00000000
   6        -0.00000000
   7         0.00000000
   8        -0.00000000
   9         0.00000000
  10        -0.00000000
  11         0.00000000
  12        -0.00000000
  13         0.00000000
  14        -0.00000000
  15        -0.00000000
  16         0.00000000
  17         0.00000000
  18         0.00000000
  19        -0.00000000
  20        -0.00000000
  21        -0.00000000
  22         0.00000000
  23         0.00000000
  24         0.00000004
  25        -0.00000000
  26        -0.00000001
  27        -0.00000013
  28         0.00000001
  29         0.00000003
  30         0.00000014
  31        -0.00000001
  32        -0.00000003
  33        -0.00000009
  34         0.00000001
  35         0.00000002
  36         0.00000004
  37        -0.00000000
  38        -0.00000001
  39        -0.00000001
  40         0.00000000
  41         0.00000000
  42        -0.09827779
  43        -0.00359147
  44        -0.01980980
  45         0.05787376
  46        -0.00622541
  47         1.24061390
  48         0.04533701
  49         0.25006981
  50        -0.73057192
  51         0.07858679
  52        -0.92161831
  53        -0.03367963
  54        -0.18577006
  55         0.54272200
  56        -0.05837999
  57         0.31968520
  58         0.01168258
  59         0.06443876
  60        -0.18825601
  61         0.02025049
Sym=    40a  
Ene=     4.2854
Spin= Alpha
Occup=    0.00000
   1        -0.00000123
   2         0.00028229
   3        -0.00072481
   4         0.00944488
   5        -0.02200275
   6         0.16736528
   7        -0.33697908
   8         2.14858046
   9        -6.15986771
  10         8.44446641
  11        -6.24638535
  12         3.17046335
  13        -1.40598551
  14         0.32694593
  15        -0.00000001
  16        -0.00000000
  17         0.00000000
  18         0.00000007
  19         0.00000001
  20        -0.00000000
  21        -0.00000069
  22        -0.00000012
  23         0.00000004
  24         0.00000270
  25         0.00000045
  26        -0.00000017
  27        -0.00000282
  28        -0.00000048
  29         0.00000016
  30         0.00000208
  31         0.00000034
  32        -0.00000016
  33        -0.00000100
  34        -0.00000018
  35         0.00000005
  36         0.00000046
  37         0.00000008
  38        -0.00000003
  39        -0.00000012
  40        -0.00000002
  41         0.00000001
  42        -0.00000000
  43        -0.00000000
  44        -0.00000000
  45        -0.00000000
  46        -0.00000000
  47         0.00000000
  48         0.00000000
  49         0.00000000
  50         0.00000000
  51         0.00000000
  52        -0.00000000
  53        -0.00000000
  54        -0.00000000
  55        -0.00000000
  56        -0.00000000
  57         0.00000000
  58         0.00000000
  59         0.00000000
  60         0.00000000
  61        -0.00000000
Sym=    41a  
Ene=     5.1856
Spin= Alpha
Occup=    0.00000
   1         0.00000000
   2         0.00000000
   3        -0.00000000
   4         0.00000000
   5        -0.00000000
   6         0.00000000
   7        -0.00000000
   8         0.00000000
   9        -0.00000000
  10         0.00000000
  11        -0.00000000
  12         0.00000000
  13        -0.00000000
  14         0.00000000
  15        -0.00000000
  16         0.00000000
  17        -0.00000000
  18         0.00000000
  19        -0.00000000
  20         0.00000000
  21        -0.00000000
  22         0.00000000
  23        -0.00000000
  24         0.00000001
  25        -0.00000000
  26         0.00000000
  27        -0.00000001
  28         0.00000000
  29        -0.00000000
  30         0.00000001
  31        -0.00000000
  32         0.00000000
  33        -0.00000001
  34         0.00000000
  35        -0.00000000
  36         0.00000000
  37        -0.00000000
  38         0.00000000
  39        -0.00000000
  40         0.00000000
  41        -0.00000000
  42        -0.91943688
  43         0.68988074
  44         0.00712136
  45         0.77428971
  46         0.00903767
  47         0.75363274
  48        -0.56547298
  49        -0.00583715
  50        -0.63466028
  51        -0.00740789
  52        -0.35911623
  53         0.26945555
  54         0.00278148
  55         0.30242424
  56         0.00352996
  57         0.11784397
  58        -0.08842183
  59        -0.00091274
  60        -0.09924050
  61        -0.00115836
Sym=    42a  
Ene=     5.1856
Spin= Alpha
Occup=    0.00000
   1         0.00000000
   2         0.00000000
   3        -0.00000000
   4         0.00000000
   5        -0.00000000
   6         0.00000000
   7        -0.00000000
   8         0.00000000
   9        -0.00000000
  10         0.00000000
  11        -0.00000000
  12         0.00000000
  13        -0.00000000
  14         0.00000000
  15         0.00000000
  16         0.00000000
  17        -0.00000000
  18        -0.00000000
  19        -0.00000000
  20         0.00000000
  21         0.00000000
  22         0.00000000
  23        -0.00000000
  24        -0.00000000
  25        -0.00000000
  26         0.00000001
  27         0.00000000
  28         0.00000000
  29        -0.00000001
  30        -0.00000000
  31        -0.00000000
  32         0.00000001
  33         0.00000000
  34         0.00000000
  35        -0.00000001
  36        -0.00000000
  37        -0.00000000
  38         0.00000000
  39         0.00000000
  40         0.00000000
  41        -0.00000000
  42         0.70763904
  43         1.17361391
  44         0.02304697
  45        -0.20563868
  46         0.00393694
  47        -0.58002888
  48        -0.96197345
  49        -0.01889086
  50         0.16855539
  51        -0.00322698
  52         0.27639164
  53         0.45839341
  54         0.00900175
  55        -0.08031893
  56         0.00153770
  57        -0.09069790
  58        -0.15042177
  59        -0.00295392
  60         0.02635665
  61        -0.00050460
Sym=    43a  
Ene=     5.1856
Spin= Alpha
Occup=    0.00000
   1        -0.00000000
   2         0.00000000
   3        -0.00000000
   4         0.00000000
   5        -0.00000000
   6         0.00000000
   7        -0.00000000
   8         0.00000000
   9        -0.00000000
  10         0.00000000
  11        -0.00000000
  12         0.00000000
  13        -0.00000000
  14         0.00000000
  15        -0.00000000
  16        -0.00000000
  17        -0.00000000
  18         0.00000000
  19         0.00000000
  20         0.00000000
  21        -0.00000000
  22        -0.00000000
  23        -0.00000000
  24         0.00000000
  25         0.00000001
  26         0.00000000
  27        -0.00000000
  28        -0.00000001
  29        -0.00000000
  30         0.00000000
  31         0.00000000
  32         0.00000000
  33        -0.00000000
  34        -0.00000000
  35        -0.00000000
  36         0.00000000
  37         0.00000000
  38         0.00000000
  39        -0.00000000
  40        -0.00000000
  41        -0.00000000
  42        -0.00493523
  43        -0.02454051
  44         1.36205696
  45         0.00049881
  46         0.25520690
  47         0.00404525
  48         0.02011507
  49        -1.11643413
  50        -0.00040886
  51        -0.20918486
  52        -0.00192762
  53        -0.00958510
  54         0.53199602
  55         0.00019483
  56         0.09967942
  57         0.00063255
  58         0.00314535
  59        -0.17457447
  60        -0.00006393
  61        -0.03270980
Sym=    44a  
Ene=     5.1856
Spin= Alpha
Occup=    0.00000
   1         0.00000000
   2         0.00000000
   3        -0.00000000
   4         0.00000000
   5        -0.00000000
   6         0.00000000
   7        -0.00000000
   8         0.00000001
   9        -0.00000001
  10         0.00000001
  11        -0.00000001
  12         0.00000001
  13        -0.00000000
  14         0.00000000
  15        -0.00000000
  16         0.00000000
  17         0.00000000
  18         0.00000000
  19        -0.00000000
  20         0.00000000
  21        -0.00000000
  22         0.00000000
  23         0.00000000
  24         0.00000001
  25        -0.00000001
  26        -0.00000000
  27        -0.00000001
  28         0.00000001
  29         0.00000000
  30         0.00000000
  31        -0.00000000
  32         0.00000000
  33        -0.00000000
  34         0.00000000
  35         0.00000000
  36         0.00000000
  37        -0.00000000
  38        -0.00000000
  39        -0.00000000
  40         0.00000000
  41         0.00000000
  42         0.75788486
  43        -0.25879201
  44         0.00293830
  45         1.13083790
  46        -0.02812135
  47        -0.62121376
  48         0.21212346
  49        -0.00240843
  50        -0.92691133
  51         0.02305016
  52         0.29601679
  53        -0.10107971
  54         0.00114765
  55         0.44168583
  56        -0.01098372
  57        -0.09713790
  58         0.03316930
  59        -0.00037660
  60        -0.14493918
  61         0.00360431
Sym=    45a  
Ene=     5.1856
Spin= Alpha
Occup=    0.00000
   1         0.00000000
   2         0.00000000
   3        -0.00000000
   4         0.00000000
   5        -0.00000000
   6         0.00000000
   7        -0.00000000
   8         0.00000000
   9        -0.00000000
  10         0.00000000
  11        -0.00000000
  12         0.00000000
  13        -0.00000000
  14         0.00000000
  15        -0.00000000
  16        -0.00000000
  17         0.00000000
  18         0.00000000
  19         0.00000000
  20        -0.00000000
  21        -0.00000000
  22        -0.00000000
  23         0.00000000
  24         0.00000001
  25         0.00000001
  26        -0.00000000
  27        -0.00000001
  28        -0.00000001
  29         0.00000000
  30         0.00000000
  31         0.00000001
  32        -0.00000000
  33        -0.00000000
  34        -0.00000000
  35         0.00000000
  36         0.00000000
  37         0.00000000
  38        -0.00000000
  39        -0.00000000
  40        -0.00000000
  41         0.00000000
  42         0.02062899
  43        -0.00871540
  44        -0.25527807
  45         0.01871213
  46         1.36196109
  47        -0.01690892
  48         0.00714373
  49         0.20924319
  50        -0.01533773
  51        -1.11635555
  52         0.00805733
  53        -0.00340408
  54        -0.09970722
  55         0.00730864
  56         0.53195857
  57        -0.00264401
  58         0.00111705
  59         0.03271892
  60        -0.00239833
  61        -0.17456218
Sym=    46a  
Ene=     5.6386
Spin= Alpha
Occup=    0.00000
   1        -0.00000000
   2         0.00000000
   3        -0.00000000
   4         0.00000001
   5        -0.00000001
   6         0.00000010
   7        -0.00000022
   8         0.00000125
   9        -0.00000355
  10         0.00000501
  11        -0.00000399
  12         0.00000223
  13        -0.00000098
  14         0.00000019
  15         0.01820980
  16         0.00028246
  17         0.01740921
  18        -0.05544285
  19        -0.00085999
  20        -0.05300532
  21         1.07064013
  22         0.01660702
  23         1.02356975
  24        -2.46941816
  25        -0.03830389
  26        -2.36085091
  27         2.25163677
  28         0.03492582
  29         2.15264421
  30        -1.39074354
  31        -0.02157224
  32        -1.32959991
  33         0.79880141
  34         0.01239045
  35         0.76368234
  36        -0.33467413
  37        -0.00519123
  38        -0.31996028
  39         0.08726482
  40         0.00135359
  41         0.08342824
  42        -0.00000000
  43         0.00000001
  44         0.00000000
  45         0.00000000
  46         0.00000000
  47         0.00000000
  48        -0.00000000
  49        -0.00000000
  50        -0.00000000
  51        -0.00000000
  52        -0.00000000
  53         0.00000000
  54         0.00000000
  55         0.00000000
  56         0.00000000
  57        -0.00000000
  58        -0.00000000
  59        -0.00000000
  60        -0.00000000
  61        -0.00000000
Sym=    47a  
Ene=     5.6386
Spin= Alpha
Occup=    0.00000
   1         0.00000000
   2        -0.00000000
   3         0.00000000
   4        -0.00000001
   5         0.00000001
   6        -0.00000010
   7         0.00000018
   8        -0.00000124
   9         0.00000371
  10        -0.00000534
  11         0.00000425
  12        -0.00000233
  13         0.00000102
  14        -0.00000022
  15        -0.01741149
  16         0.00032228
  17         0.01820696
  18         0.05301227
  19        -0.00098123
  20        -0.05543420
  21        -1.02370389
  22         0.01894831
  23         1.07047301
  24         2.36116029
  25        -0.04370405
  26        -2.46903268
  27        -2.15292631
  28         0.03984973
  29         2.25128528
  30         1.32977414
  31        -0.02461354
  32        -1.39052644
  33        -0.76378242
  34         0.01413728
  35         0.79867672
  36         0.32000221
  37        -0.00592310
  38        -0.33462188
  39        -0.08343917
  40         0.00154442
  41         0.08725119
  42         0.00000000
  43         0.00000000
  44         0.00000000
  45        -0.00000000
  46        -0.00000000
  47        -0.00000000
  48        -0.00000000
  49        -0.00000000
  50         0.00000000
  51         0.00000000
  52         0.00000000
  53         0.00000000
  54         0.00000000
  55        -0.00000000
  56        -0.00000000
  57        -0.00000000
  58        -0.00000000
  59        -0.00000000
  60         0.00000000
  61         0.00000000
Sym=    48a  
Ene=     5.6386
Spin= Alpha
Occup=    0.00000
   1        -0.00000000
   2         0.00000000
   3        -0.00000000
   4         0.00000000
   5        -0.00000000
   6         0.00000003
   7        -0.00000007
   8         0.00000035
   9        -0.00000093
  10         0.00000129
  11        -0.00000104
  12         0.00000059
  13        -0.00000025
  14         0.00000004
  15         0.00001857
  16         0.02519074
  17        -0.00042814
  18        -0.00005655
  19        -0.07669755
  20         0.00130354
  21         0.00109198
  22         1.48108289
  23        -0.02517220
  24        -0.00251864
  25        -3.41609913
  26         0.05805935
  27         0.00229652
  28         3.11482859
  29        -0.05293902
  30        -0.00141847
  31        -1.92390165
  32         0.03269826
  33         0.00081472
  34         1.10503146
  35        -0.01878090
  36        -0.00034135
  37        -0.46297545
  38         0.00786864
  39         0.00008900
  40         0.12071882
  41        -0.00205171
  42        -0.00000000
  43        -0.00000000
  44         0.00000000
  45        -0.00000000
  46         0.00000001
  47         0.00000000
  48         0.00000000
  49        -0.00000000
  50         0.00000000
  51        -0.00000001
  52        -0.00000000
  53        -0.00000000
  54         0.00000000
  55        -0.00000000
  56         0.00000000
  57         0.00000000
  58         0.00000000
  59        -0.00000000
  60         0.00000000
  61        -0.00000000
Sym=    49a  
Ene=    16.6870
Spin= Alpha
Occup=    0.00000
   1         0.00010316
   2        -0.00045035
   3         0.00728388
   4        -0.02288143
   5         0.17328462
   6        -0.48481654
   7         3.20471151
   8        -7.03751712
   9         7.58164077
  10        -5.09784090
  11         2.95242551
  12        -1.56450989
  13         0.59994995
  14        -0.15165984
  15        -0.00000000
  16         0.00000000
  17         0.00000000
  18         0.00000004
  19        -0.00000003
  20        -0.00000006
  21        -0.00000013
  22         0.00000009
  23         0.00000017
  24         0.00000010
  25        -0.00000007
  26        -0.00000014
  27        -0.00000008
  28         0.00000005
  29         0.00000009
  30         0.00000001
  31        -0.00000003
  32        -0.00000006
  33        -0.00000004
  34         0.00000001
  35         0.00000003
  36         0.00000001
  37        -0.00000001
  38        -0.00000001
  39        -0.00000000
  40         0.00000000
  41         0.00000000
  42         0.00000000
  43         0.00000000
  44         0.00000000
  45         0.00000000
  46         0.00000000
  47        -0.00000000
  48        -0.00000000
  49        -0.00000000
  50        -0.00000000
  51         0.00000000
  52        -0.00000000
  53        -0.00000000
  54        -0.00000000
  55        -0.00000000
  56        -0.00000000
  57         0.00000000
  58        -0.00000000
  59        -0.00000000
  60         0.00000000
  61        -0.00000000
Sym=    50a  
Ene=    21.8830
Spin= Alpha
Occup=    0.00000
   1        -0.00000000
   2         0.00000000
   3        -0.00000000
   4         0.00000000
   5        -0.00000001
   6         0.00000004
   7        -0.00000005
   8         0.00000020
   9        -0.00000059
  10         0.00000091
  11        -0.00000081
  12         0.00000051
  13        -0.00000022
  14         0.00000003
  15        -0.04546431
  16        -0.00107826
  17        -0.04361671
  18         1.21459975
  19         0.02880634
  20         1.16524009
  21        -1.98962591
  22        -0.04718743
  23        -1.90877026
  24         1.52295167
  25         0.03611944
  26         1.46106102
  27        -0.98327128
  28        -0.02331998
  29        -0.94331249
  30         0.62021641
  31         0.01470951
  32         0.59501167
  33        -0.31661574
  34        -0.00750909
  35        -0.30374892
  36         0.14415963
  37         0.00341900
  38         0.13830118
  39        -0.03786178
  40        -0.00089796
  41        -0.03632313
  42        -0.00000000
  43         0.00000000
  44         0.00000000
  45         0.00000000
  46         0.00000000
  47         0.00000000
  48        -0.00000000
  49        -0.00000000
  50        -0.00000000
  51        -0.00000000
  52        -0.00000000
  53         0.00000000
  54        -0.00000000
  55         0.00000000
  56        -0.00000000
  57        -0.00000000
  58         0.00000000
  59         0.00000000
  60         0.00000000
  61         0.00000000
Sym=    51a  
Ene=    21.8830
Spin= Alpha
Occup=    0.00000
   1         0.00000000
   2        -0.00000000
   3         0.00000000
   4        -0.00000000
   5         0.00000002
   6        -0.00000006
   7         0.00000026
   8        -0.00000069
   9         0.00000116
  10        -0.00000133
  11         0.00000108
  12        -0.00000064
  13         0.00000027
  14        -0.00000006
  15         0.04362984
  16        -0.00130948
  17        -0.04544563
  18        -1.16559103
  19         0.03498347
  20         1.21410072
  21         1.90934512
  22        -0.05730613
  23        -1.98880843
  24        -1.46150104
  25         0.04386476
  26         1.52232594
  27         0.94359658
  28        -0.02832064
  29        -0.98286728
  30        -0.59519087
  31         0.01786376
  32         0.61996158
  33         0.30384040
  34        -0.00911931
  35        -0.31648566
  36        -0.13834283
  37         0.00415215
  38         0.14410040
  39         0.03633407
  40        -0.00109051
  41        -0.03784623
  42         0.00000000
  43         0.00000000
  44         0.00000000
  45        -0.00000000
  46        -0.00000000
  47        -0.00000000
  48        -0.00000000
  49        -0.00000000
  50         0.00000000
  51         0.00000000
  52         0.00000000
  53         0.00000000
  54        -0.00000000
  55        -0.00000000
  56         0.00000000
  57        -0.00000000
  58         0.00000000
  59         0.00000000
  60        -0.00000000
  61        -0.00000000
Sym=    52a  
Ene=    21.8830
Spin= Alpha
Occup=    0.00000
   1         0.00000000
   2         0.00000000
   3         0.00000000
   4         0.00000000
   5         0.00000000
   6         0.00000001
   7         0.00000005
   8        -0.00000009
   9         0.00000001
  10         0.00000013
  11        -0.00000016
  12         0.00000011
  13        -0.00000004
  14        -0.00000000
  15        -0.00012875
  16        -0.06298973
  17         0.00169140
  18         0.00343965
  19         1.68279925
  20        -0.04518647
  21        -0.00563446
  22        -2.75657956
  23         0.07401958
  24         0.00431288
  25         2.11001343
  26        -0.05665801
  27        -0.00278455
  28        -1.36229903
  29         0.03658041
  30         0.00175640
  31         0.85929514
  32        -0.02307376
  33        -0.00089663
  34        -0.43866360
  35         0.01177898
  36         0.00040825
  37         0.19972974
  38        -0.00536314
  39        -0.00010722
  40        -0.05245660
  41         0.00140856
  42        -0.00000000
  43        -0.00000000
  44         0.00000000
  45        -0.00000000
  46         0.00000000
  47         0.00000000
  48         0.00000000
  49        -0.00000000
  50         0.00000000
  51        -0.00000000
  52         0.00000000
  53        -0.00000000
  54         0.00000000
  55         0.00000000
  56         0.00000000
  57        -0.00000000
  58        -0.00000000
  59        -0.00000000
  60        -0.00000000
  61         0.00000000
