[MOLDEN FORMAT]
[N_ATOMS]
                    1
[ATOMS] (AU)
BE          1      4           0.00000000      0.00000000      0.00000000
[5D]
[CHARGE] (MULLIKEN)
   0.0000000000000000     
[GTO] (AU)
   1
   s   1
  0.227869992E+05  0.100000000E+01
   s   1
  0.339592433E+04  0.100000000E+01
   s   1
  0.765672853E+03  0.100000000E+01
   s   1
  0.213222663E+03  0.100000000E+01
   s   1
  0.676940323E+02  0.100000000E+01
   s   1
  0.235357822E+02  0.100000000E+01
   s   1
  0.878242261E+01  0.100000000E+01
   s   1
  0.349236764E+01  0.100000000E+01
   s   1
  0.146230901E+01  0.100000000E+01
   s   1
  0.612875305E+00  0.100000000E+01
   s   1
  0.259489802E+00  0.100000000E+01
   s   1
  0.104905232E+00  0.100000000E+01
   s   1
  0.427239890E-01  0.100000000E+01
   s   1
  0.149529430E-01  0.100000000E+01
   p   1
  0.337101840E+02  0.100000000E+01
   p   1
  0.805764950E+01  0.100000000E+01
   p   1
  0.283647140E+01  0.100000000E+01
   p   1
  0.109996570E+01  0.100000000E+01
   p   1
  0.443396400E+00  0.100000000E+01
   p   1
  0.182226400E+00  0.100000000E+01
   p   1
  0.757241000E-01  0.100000000E+01
   p   1
  0.316854000E-01  0.100000000E+01
   p   1
  0.110899000E-01  0.100000000E+01
   d   1
  0.140000000E+01  0.100000000E+01
   d   1
  0.490000000E+00  0.100000000E+01
   d   1
  0.171500000E+00  0.100000000E+01
   d   1
  0.600250000E-01  0.100000000E+01
 
[MO]
Sym=     1a  
Ene=    -4.7332
Spin= Alpha
Occup=    2.00000
   1         0.00008387
   2         0.00045634
   3         0.00226634
   4         0.00956534
   5         0.03466149
   6         0.10533565
   7         0.24450986
   8         0.38546152
   9         0.31238462
  10         0.06560235
  11        -0.00229960
  12        -0.00048100
  13        -0.00090080
  14         0.00012755
  15        -0.00000000
  16         0.00000000
  17         0.00000000
  18         0.00000000
  19        -0.00000000
  20        -0.00000000
  21        -0.00000000
  22         0.00000000
  23         0.00000000
  24         0.00000000
  25        -0.00000000
  26        -0.00000000
  27        -0.00000000
  28         0.00000000
  29        -0.00000000
  30        -0.00000000
  31         0.00000000
  32         0.00000000
  33         0.00000000
  34        -0.00000000
  35        -0.00000000
  36        -0.00000000
  37         0.00000000
  38         0.00000000
  39         0.00000000
  40        -0.00000000
  41        -0.00000000
  42        -0.00000000
  43         0.00000000
  44        -0.00000000
  45         0.00000000
  46         0.00000000
  47        -0.00000000
  48         0.00000000
  49        -0.00000000
  50        -0.00000000
  51        -0.00000000
  52        -0.00000000
  53        -0.00000000
  54        -0.00000000
  55         0.00000000
  56         0.00000000
  57         0.00000000
  58         0.00000000
  59         0.00000000
  60        -0.00000000
  61        -0.00000000
Sym=     2a  
Ene=    -0.3093
Spin= Alpha
Occup=    2.00000
   1        -0.00001584
   2        -0.00008550
   3        -0.00042777
   4        -0.00180625
   5        -0.00663538
   6        -0.02077465
   7        -0.05172256
   8        -0.09798269
   9        -0.13561630
  10        -0.06572281
  11         0.30848495
  12         0.62772688
  13         0.21470745
  14        -0.00398465
  15         0.00000000
  16        -0.00000000
  17         0.00000000
  18        -0.00000000
  19         0.00000000
  20        -0.00000000
  21         0.00000000
  22        -0.00000000
  23         0.00000000
  24        -0.00000000
  25         0.00000000
  26        -0.00000000
  27         0.00000000
  28        -0.00000000
  29        -0.00000000
  30         0.00000000
  31        -0.00000000
  32         0.00000000
  33        -0.00000000
  34         0.00000000
  35        -0.00000000
  36         0.00000000
  37        -0.00000000
  38         0.00000000
  39        -0.00000000
  40         0.00000000
  41        -0.00000000
  42         0.00000000
  43        -0.00000000
  44        -0.00000000
  45         0.00000000
  46        -0.00000000
  47        -0.00000000
  48         0.00000000
  49         0.00000000
  50        -0.00000000
  51         0.00000000
  52         0.00000000
  53        -0.00000000
  54        -0.00000000
  55        -0.00000000
  56         0.00000000
  57        -0.00000000
  58         0.00000000
  59         0.00000000
  60         0.00000000
  61        -0.00000000
Sym=     3a  
Ene=     3.0243
Spin= Alpha
Occup=    0.00000
   1         0.00000000
   2        -0.00000000
   3        -0.00000000
   4        -0.00000000
   5         0.00000000
   6        -0.00000000
   7         0.00000000
   8        -0.00000000
   9         0.00000000
  10        -0.00000000
  11         0.00000000
  12        -0.00000000
  13         0.00000000
  14        -0.00000000
  15         0.00000000
  16         0.00005414
  17         0.00000000
  18        -0.00000000
  19        -0.00048381
  20        -0.00000000
  21         0.00000000
  22         0.00233991
  23         0.00000000
  24        -0.00000000
  25        -0.00853733
  26        -0.00000000
  27         0.00000000
  28         0.02698798
  29        -0.00000000
  30         0.00000000
  31        -0.07842331
  32         0.00000000
  33        -0.00000000
  34         0.21105341
  35        -0.00000000
  36         0.00000000
  37        -0.48537986
  38         0.00000000
  39        -0.00000000
  40         1.25839548
  41        -0.00000000
  42         0.00000000
  43         0.00000000
  44         0.00000000
  45         0.00000000
  46        -0.00000000
  47        -0.00000000
  48        -0.00000000
  49        -0.00000000
  50        -0.00000000
  51         0.00000000
  52        -0.00000000
  53        -0.00000000
  54        -0.00000000
  55         0.00000000
  56        -0.00000000
  57         0.00000000
  58         0.00000000
  59         0.00000000
  60        -0.00000000
  61         0.00000000
Sym=     4a  
Ene=     3.0243
Spin= Alpha
Occup=    0.00000
   1        -0.00000000
   2        -0.00000000
   3        -0.00000000
   4        -0.00000000
   5        -0.00000000
   6        -0.00000000
   7        -0.00000000
   8        -0.00000000
   9        -0.00000000
  10        -0.00000000
  11         0.00000000
  12         0.00000000
  13         0.00000000
  14        -0.00000000
  15         0.00000000
  16        -0.00000000
  17         0.00005414
  18        -0.00000000
  19         0.00000000
  20        -0.00048381
  21         0.00000000
  22        -0.00000000
  23         0.00233991
  24        -0.00000000
  25         0.00000000
  26        -0.00853733
  27         0.00000000
  28        -0.00000000
  29         0.02698798
  30         0.00000000
  31        -0.00000000
  32        -0.07842331
  33        -0.00000000
  34         0.00000000
  35         0.21105341
  36         0.00000000
  37        -0.00000000
  38        -0.48537986
  39        -0.00000000
  40         0.00000000
  41         1.25839548
  42         0.00000000
  43        -0.00000000
  44        -0.00000000
  45         0.00000000
  46        -0.00000000
  47        -0.00000000
  48         0.00000000
  49         0.00000000
  50        -0.00000000
  51         0.00000000
  52         0.00000000
  53        -0.00000000
  54        -0.00000000
  55        -0.00000000
  56         0.00000000
  57        -0.00000000
  58         0.00000000
  59         0.00000000
  60         0.00000000
  61        -0.00000000
Sym=     5a  
Ene=     3.0243
Spin= Alpha
Occup=    0.00000
   1        -0.00000000
   2        -0.00000000
   3        -0.00000000
   4        -0.00000000
   5        -0.00000000
   6        -0.00000000
   7        -0.00000000
   8        -0.00000000
   9        -0.00000000
  10        -0.00000000
  11         0.00000000
  12         0.00000000
  13         0.00000000
  14        -0.00000000
  15         0.00005414
  16        -0.00000000
  17         0.00000000
  18        -0.00048381
  19         0.00000000
  20        -0.00000000
  21         0.00233991
  22        -0.00000000
  23         0.00000000
  24        -0.00853733
  25         0.00000000
  26        -0.00000000
  27         0.02698798
  28        -0.00000000
  29        -0.00000000
  30        -0.07842331
  31        -0.00000000
  32         0.00000000
  33         0.21105341
  34         0.00000000
  35        -0.00000000
  36        -0.48537986
  37        -0.00000000
  38         0.00000000
  39         1.25839548
  40         0.00000000
  41        -0.00000000
  42         0.00000000
  43        -0.00000000
  44        -0.00000000
  45         0.00000000
  46        -0.00000000
  47        -0.00000000
  48         0.00000000
  49         0.00000000
  50         0.00000000
  51         0.00000000
  52         0.00000000
  53        -0.00000000
  54        -0.00000000
  55        -0.00000000
  56         0.00000000
  57        -0.00000000
  58         0.00000000
  59         0.00000000
  60         0.00000000
  61        -0.00000000
Sym=     6a  
Ene=     3.0389
Spin= Alpha
Occup=    0.00000
   1        -0.00000018
   2         0.00000216
   3        -0.00001536
   4         0.00008365
   5        -0.00036107
   6         0.00154506
   7        -0.00462655
   8         0.01984692
   9        -0.03791143
  10         0.14620764
  11        -0.27971893
  12         0.67056195
  13        -1.83590294
  14         1.93575304
  15         0.00000000
  16         0.00000000
  17         0.00000000
  18        -0.00000000
  19        -0.00000000
  20        -0.00000000
  21         0.00000000
  22         0.00000000
  23         0.00000000
  24        -0.00000000
  25        -0.00000000
  26        -0.00000000
  27         0.00000000
  28         0.00000000
  29        -0.00000000
  30         0.00000000
  31        -0.00000000
  32         0.00000000
  33        -0.00000000
  34         0.00000000
  35        -0.00000000
  36         0.00000000
  37        -0.00000000
  38         0.00000000
  39        -0.00000000
  40         0.00000000
  41        -0.00000000
  42         0.00000000
  43        -0.00000000
  44         0.00000000
  45         0.00000000
  46        -0.00000000
  47        -0.00000000
  48         0.00000000
  49        -0.00000000
  50        -0.00000000
  51         0.00000000
  52         0.00000000
  53        -0.00000000
  54         0.00000000
  55         0.00000000
  56         0.00000000
  57        -0.00000000
  58        -0.00000000
  59        -0.00000000
  60         0.00000000
  61        -0.00000000
Sym=     7a  
Ene=     3.0954
Spin= Alpha
Occup=    0.00000
   1        -0.00000000
   2        -0.00000000
   3        -0.00000000
   4        -0.00000000
   5        -0.00000000
   6        -0.00000000
   7         0.00000000
   8         0.00000000
   9         0.00000000
  10         0.00000000
  11        -0.00000000
  12        -0.00000000
  13        -0.00000000
  14         0.00000000
  15        -0.00000000
  16         0.00000000
  17        -0.00017520
  18         0.00000000
  19        -0.00000000
  20         0.00156768
  21        -0.00000000
  22         0.00000000
  23        -0.00760347
  24         0.00000000
  25        -0.00000000
  26         0.02792513
  27        -0.00000000
  28         0.00000000
  29        -0.08961760
  30        -0.00000000
  31         0.00000000
  32         0.26936035
  33         0.00000000
  34        -0.00000000
  35        -0.77967746
  36        -0.00000000
  37         0.00000000
  38         2.05621769
  39         0.00000000
  40        -0.00000000
  41        -1.01234483
  42        -0.00000000
  43         0.00000000
  44         0.00000000
  45        -0.00000000
  46         0.00000000
  47         0.00000000
  48        -0.00000000
  49        -0.00000000
  50         0.00000000
  51         0.00000000
  52        -0.00000000
  53         0.00000000
  54         0.00000000
  55         0.00000000
  56        -0.00000000
  57         0.00000000
  58        -0.00000000
  59        -0.00000000
  60        -0.00000000
  61         0.00000000
Sym=     8a  
Ene=     3.0954
Spin= Alpha
Occup=    0.00000
   1        -0.00000000
   2        -0.00000000
   3        -0.00000000
   4        -0.00000000
   5         0.00000000
   6        -0.00000000
   7         0.00000000
   8        -0.00000000
   9         0.00000000
  10        -0.00000000
  11         0.00000000
  12        -0.00000000
  13         0.00000000
  14        -0.00000000
  15         0.00000000
  16        -0.00017520
  17         0.00000000
  18        -0.00000000
  19         0.00156768
  20        -0.00000000
  21         0.00000000
  22        -0.00760347
  23         0.00000000
  24        -0.00000000
  25         0.02792513
  26        -0.00000000
  27         0.00000000
  28        -0.08961760
  29        -0.00000000
  30         0.00000000
  31         0.26936035
  32         0.00000000
  33        -0.00000000
  34        -0.77967746
  35        -0.00000000
  36         0.00000000
  37         2.05621769
  38         0.00000000
  39        -0.00000000
  40        -1.01234483
  41        -0.00000000
  42         0.00000000
  43         0.00000000
  44         0.00000000
  45         0.00000000
  46         0.00000000
  47        -0.00000000
  48        -0.00000000
  49        -0.00000000
  50        -0.00000000
  51        -0.00000000
  52        -0.00000000
  53        -0.00000000
  54        -0.00000000
  55         0.00000000
  56         0.00000000
  57         0.00000000
  58        -0.00000000
  59        -0.00000000
  60        -0.00000000
  61        -0.00000000
Sym=     9a  
Ene=     3.0954
Spin= Alpha
Occup=    0.00000
   1         0.00000000
   2         0.00000000
   3         0.00000000
   4         0.00000000
   5         0.00000000
   6         0.00000000
   7         0.00000000
   8         0.00000000
   9         0.00000000
  10         0.00000000
  11        -0.00000000
  12        -0.00000000
  13        -0.00000000
  14         0.00000000
  15        -0.00017520
  16         0.00000000
  17        -0.00000000
  18         0.00156768
  19        -0.00000000
  20         0.00000000
  21        -0.00760347
  22         0.00000000
  23        -0.00000000
  24         0.02792513
  25        -0.00000000
  26         0.00000000
  27        -0.08961760
  28         0.00000000
  29         0.00000000
  30         0.26936035
  31         0.00000000
  32        -0.00000000
  33        -0.77967746
  34        -0.00000000
  35         0.00000000
  36         2.05621769
  37         0.00000000
  38        -0.00000000
  39        -1.01234483
  40        -0.00000000
  41         0.00000000
  42        -0.00000000
  43         0.00000000
  44         0.00000000
  45        -0.00000000
  46         0.00000000
  47         0.00000000
  48        -0.00000000
  49        -0.00000000
  50        -0.00000000
  51        -0.00000000
  52        -0.00000000
  53         0.00000000
  54         0.00000000
  55         0.00000000
  56        -0.00000000
  57         0.00000000
  58        -0.00000000
  59        -0.00000000
  60        -0.00000000
  61         0.00000000
Sym=    10a  
Ene=     3.1944
Spin= Alpha
Occup=    0.00000
   1        -0.00000000
   2         0.00000000
   3        -0.00000000
   4         0.00000000
   5        -0.00000000
   6         0.00000000
   7        -0.00000000
   8         0.00000000
   9         0.00000000
  10        -0.00000000
  11         0.00000000
  12        -0.00000000
  13         0.00000000
  14        -0.00000000
  15         0.00000000
  16         0.00000000
  17         0.00000000
  18        -0.00000000
  19        -0.00000000
  20        -0.00000000
  21         0.00000000
  22         0.00000000
  23         0.00000000
  24        -0.00000000
  25        -0.00000000
  26        -0.00000000
  27         0.00000000
  28         0.00000000
  29        -0.00000000
  30         0.00000000
  31         0.00000000
  32         0.00000000
  33        -0.00000000
  34        -0.00000000
  35        -0.00000000
  36         0.00000000
  37        -0.00000000
  38         0.00000000
  39        -0.00000000
  40        -0.00000000
  41        -0.00000000
  42        -0.00893183
  43         0.00617353
  44         0.00244420
  45        -0.00057080
  46        -0.00605692
  47         0.04566859
  48        -0.03156536
  49        -0.01249721
  50         0.00291850
  51         0.03096911
  52        -0.19177433
  53         0.13255119
  54         0.05247906
  55        -0.01225554
  56        -0.13004735
  57         0.80566743
  58        -0.55686377
  59        -0.22047095
  60         0.05148703
  61         0.54634484
Sym=    11a  
Ene=     3.1944
Spin= Alpha
Occup=    0.00000
   1         0.00000000
   2        -0.00000000
   3         0.00000000
   4        -0.00000000
   5         0.00000000
   6        -0.00000000
   7         0.00000000
   8         0.00000000
   9        -0.00000000
  10         0.00000000
  11        -0.00000000
  12        -0.00000000
  13         0.00000000
  14        -0.00000000
  15        -0.00000000
  16         0.00000000
  17        -0.00000000
  18         0.00000000
  19        -0.00000000
  20         0.00000000
  21        -0.00000000
  22         0.00000000
  23        -0.00000000
  24         0.00000000
  25        -0.00000000
  26         0.00000000
  27        -0.00000000
  28        -0.00000000
  29         0.00000000
  30        -0.00000000
  31        -0.00000000
  32        -0.00000000
  33         0.00000000
  34         0.00000000
  35         0.00000000
  36        -0.00000000
  37        -0.00000000
  38        -0.00000000
  39         0.00000000
  40         0.00000000
  41         0.00000000
  42        -0.00210370
  43        -0.01026668
  44         0.00456524
  45        -0.00057716
  46        -0.00546548
  47         0.01075625
  48         0.05249368
  49        -0.02334214
  50         0.00295105
  51         0.02794511
  52        -0.04516828
  53        -0.22043463
  54         0.09801972
  55        -0.01239223
  56        -0.11734880
  57         0.18975746
  58         0.92607288
  59        -0.41179286
  60         0.05206128
  61         0.49299665
Sym=    12a  
Ene=     3.1944
Spin= Alpha
Occup=    0.00000
   1        -0.00000000
   2         0.00000000
   3        -0.00000000
   4         0.00000000
   5        -0.00000000
   6         0.00000000
   7         0.00000000
   8        -0.00000000
   9         0.00000000
  10        -0.00000000
  11         0.00000000
  12        -0.00000000
  13         0.00000000
  14        -0.00000000
  15         0.00000000
  16        -0.00000000
  17         0.00000000
  18        -0.00000000
  19         0.00000000
  20        -0.00000000
  21         0.00000000
  22        -0.00000000
  23         0.00000000
  24        -0.00000000
  25         0.00000000
  26        -0.00000000
  27         0.00000000
  28        -0.00000000
  29        -0.00000000
  30         0.00000000
  31        -0.00000000
  32         0.00000000
  33        -0.00000000
  34         0.00000000
  35         0.00000000
  36         0.00000000
  37         0.00000000
  38        -0.00000000
  39        -0.00000000
  40         0.00000000
  41         0.00000000
  42        -0.00817370
  43        -0.00355162
  44        -0.00330772
  45        -0.00385191
  46         0.00746155
  47         0.04179223
  48         0.01815949
  49         0.01691241
  50         0.01969488
  51        -0.03815102
  52        -0.17549647
  53        -0.07625642
  54        -0.07101962
  55        -0.08270394
  56         0.16020609
  57         0.73728217
  58         0.32036256
  59         0.29836213
  60         0.34744937
  61        -0.67304540
Sym=    13a  
Ene=     3.1944
Spin= Alpha
Occup=    0.00000
   1         0.00000000
   2        -0.00000000
   3         0.00000000
   4        -0.00000000
   5         0.00000000
   6        -0.00000000
   7         0.00000000
   8        -0.00000000
   9        -0.00000000
  10         0.00000000
  11        -0.00000000
  12         0.00000000
  13        -0.00000000
  14         0.00000000
  15        -0.00000000
  16         0.00000000
  17        -0.00000000
  18         0.00000000
  19        -0.00000000
  20         0.00000000
  21        -0.00000000
  22         0.00000000
  23        -0.00000000
  24         0.00000000
  25        -0.00000000
  26         0.00000000
  27        -0.00000000
  28         0.00000000
  29         0.00000000
  30        -0.00000000
  31         0.00000000
  32        -0.00000000
  33         0.00000000
  34        -0.00000000
  35        -0.00000000
  36        -0.00000000
  37        -0.00000000
  38         0.00000000
  39         0.00000000
  40        -0.00000000
  41        -0.00000000
  42         0.00313465
  43         0.00133292
  44         0.00071673
  45        -0.01205737
  46        -0.00183842
  47        -0.01602750
  48        -0.00681524
  49        -0.00366467
  50         0.06164950
  51         0.00939987
  52         0.06730365
  53         0.02861896
  54         0.01538892
  55        -0.25888231
  56        -0.03947252
  57        -0.28275088
  58        -0.12023175
  59        -0.06465075
  60         1.08759626
  61         0.16582888
Sym=    14a  
Ene=     3.1944
Spin= Alpha
Occup=    0.00000
   1        -0.00000000
   2        -0.00000000
   3         0.00000000
   4        -0.00000000
   5         0.00000000
   6        -0.00000000
   7         0.00000000
   8        -0.00000000
   9         0.00000000
  10        -0.00000000
  11         0.00000000
  12        -0.00000000
  13        -0.00000000
  14         0.00000000
  15         0.00000000
  16        -0.00000000
  17         0.00000000
  18        -0.00000000
  19         0.00000000
  20        -0.00000000
  21         0.00000000
  22        -0.00000000
  23         0.00000000
  24        -0.00000000
  25         0.00000000
  26        -0.00000000
  27         0.00000000
  28        -0.00000000
  29        -0.00000000
  30         0.00000000
  31         0.00000000
  32         0.00000000
  33        -0.00000000
  34        -0.00000000
  35        -0.00000000
  36         0.00000000
  37         0.00000000
  38         0.00000000
  39        -0.00000000
  40        -0.00000000
  41        -0.00000000
  42        -0.00019436
  43        -0.00172291
  44        -0.01107276
  45         0.00000624
  46        -0.00593835
  47         0.00099374
  48         0.00880928
  49         0.05661520
  50        -0.00003189
  51         0.03036286
  52        -0.00417299
  53        -0.03699247
  54        -0.23774198
  55         0.00013393
  56        -0.12750157
  57         0.01753123
  58         0.15540989
  59         0.99878317
  60        -0.00056265
  61         0.53564969
Sym=    15a  
Ene=     3.2542
Spin= Alpha
Occup=    0.00000
   1         0.00000084
   2        -0.00001029
   3         0.00007386
   4        -0.00039302
   5         0.00180485
   6        -0.00668001
   7         0.02724592
   8        -0.07113994
   9         0.27081684
  10        -0.55068294
  11         1.73293845
  12        -4.33077845
  13         4.39414367
  14        -1.39507980
  15         0.00000000
  16         0.00000000
  17        -0.00000000
  18        -0.00000000
  19        -0.00000000
  20         0.00000000
  21         0.00000000
  22         0.00000000
  23        -0.00000000
  24        -0.00000000
  25        -0.00000000
  26        -0.00000000
  27         0.00000000
  28         0.00000000
  29         0.00000000
  30         0.00000000
  31        -0.00000000
  32        -0.00000000
  33        -0.00000000
  34         0.00000000
  35         0.00000000
  36         0.00000000
  37        -0.00000000
  38        -0.00000000
  39        -0.00000000
  40         0.00000000
  41         0.00000000
  42         0.00000000
  43         0.00000000
  44         0.00000000
  45        -0.00000000
  46         0.00000000
  47        -0.00000000
  48        -0.00000000
  49        -0.00000000
  50         0.00000000
  51        -0.00000000
  52         0.00000000
  53         0.00000000
  54         0.00000000
  55        -0.00000000
  56         0.00000000
  57        -0.00000000
  58        -0.00000000
  59        -0.00000000
  60         0.00000000
  61        -0.00000000
Sym=    16a  
Ene=     3.2725
Spin= Alpha
Occup=    0.00000
   1        -0.00000000
   2        -0.00000000
   3        -0.00000000
   4        -0.00000000
   5        -0.00000000
   6        -0.00000000
   7        -0.00000000
   8        -0.00000000
   9        -0.00000000
  10        -0.00000000
  11         0.00000000
  12         0.00000000
  13         0.00000000
  14        -0.00000000
  15         0.00000000
  16        -0.00000000
  17         0.00048206
  18        -0.00000000
  19         0.00000000
  20        -0.00432606
  21         0.00000000
  22        -0.00000000
  23         0.02112083
  24        -0.00000000
  25         0.00000000
  26        -0.07873550
  27         0.00000000
  28        -0.00000000
  29         0.26110420
  30         0.00000000
  31        -0.00000000
  32        -0.83986870
  33        -0.00000000
  34         0.00000000
  35         2.70051420
  36         0.00000000
  37        -0.00000000
  38        -2.09522173
  39        -0.00000000
  40         0.00000000
  41         0.62439656
  42         0.00000000
  43        -0.00000000
  44        -0.00000000
  45         0.00000000
  46        -0.00000000
  47        -0.00000000
  48         0.00000000
  49         0.00000000
  50        -0.00000000
  51        -0.00000000
  52         0.00000000
  53        -0.00000000
  54        -0.00000000
  55        -0.00000000
  56         0.00000000
  57        -0.00000000
  58         0.00000000
  59         0.00000000
  60         0.00000000
  61        -0.00000000
Sym=    17a  
Ene=     3.2725
Spin= Alpha
Occup=    0.00000
   1        -0.00000000
   2        -0.00000000
   3        -0.00000000
   4        -0.00000000
   5        -0.00000000
   6        -0.00000000
   7        -0.00000000
   8        -0.00000000
   9        -0.00000000
  10        -0.00000000
  11         0.00000000
  12         0.00000000
  13         0.00000000
  14        -0.00000000
  15         0.00048206
  16        -0.00000000
  17         0.00000000
  18        -0.00432606
  19         0.00000000
  20        -0.00000000
  21         0.02112083
  22        -0.00000000
  23         0.00000000
  24        -0.07873550
  25         0.00000000
  26        -0.00000000
  27         0.26110420
  28        -0.00000000
  29        -0.00000000
  30        -0.83986870
  31        -0.00000000
  32         0.00000000
  33         2.70051420
  34         0.00000000
  35        -0.00000000
  36        -2.09522173
  37        -0.00000000
  38         0.00000000
  39         0.62439656
  40         0.00000000
  41        -0.00000000
  42         0.00000000
  43        -0.00000000
  44        -0.00000000
  45         0.00000000
  46        -0.00000000
  47        -0.00000000
  48         0.00000000
  49         0.00000000
  50         0.00000000
  51         0.00000000
  52         0.00000000
  53        -0.00000000
  54        -0.00000000
  55        -0.00000000
  56         0.00000000
  57        -0.00000000
  58         0.00000000
  59         0.00000000
  60         0.00000000
  61        -0.00000000
Sym=    18a  
Ene=     3.2725
Spin= Alpha
Occup=    0.00000
   1        -0.00000000
   2        -0.00000000
   3         0.00000000
   4        -0.00000000
   5         0.00000000
   6        -0.00000000
   7         0.00000000
   8        -0.00000000
   9         0.00000000
  10        -0.00000000
  11         0.00000000
  12         0.00000000
  13        -0.00000000
  14         0.00000000
  15        -0.00000000
  16         0.00048206
  17        -0.00000000
  18         0.00000000
  19        -0.00432606
  20         0.00000000
  21        -0.00000000
  22         0.02112083
  23        -0.00000000
  24         0.00000000
  25        -0.07873550
  26         0.00000000
  27        -0.00000000
  28         0.26110420
  29         0.00000000
  30         0.00000000
  31        -0.83986870
  32        -0.00000000
  33        -0.00000000
  34         2.70051420
  35         0.00000000
  36        -0.00000000
  37        -2.09522173
  38        -0.00000000
  39         0.00000000
  40         0.62439656
  41         0.00000000
  42         0.00000000
  43         0.00000000
  44         0.00000000
  45         0.00000000
  46         0.00000000
  47         0.00000000
  48        -0.00000000
  49         0.00000000
  50        -0.00000000
  51        -0.00000000
  52        -0.00000000
  53        -0.00000000
  54        -0.00000000
  55         0.00000000
  56         0.00000000
  57         0.00000000
  58        -0.00000000
  59         0.00000000
  60        -0.00000000
  61        -0.00000000
Sym=    19a  
Ene=     3.6948
Spin= Alpha
Occup=    0.00000
   1        -0.00000000
   2        -0.00000000
   3        -0.00000000
   4         0.00000000
   5        -0.00000000
   6         0.00000000
   7        -0.00000000
   8         0.00000000
   9        -0.00000000
  10         0.00000000
  11        -0.00000000
  12         0.00000000
  13        -0.00000000
  14         0.00000000
  15         0.00000000
  16        -0.00000000
  17         0.00000000
  18        -0.00000000
  19         0.00000000
  20        -0.00000000
  21         0.00000000
  22        -0.00000000
  23         0.00000000
  24        -0.00000000
  25         0.00000000
  26        -0.00000000
  27         0.00000000
  28        -0.00000000
  29        -0.00000000
  30         0.00000000
  31         0.00000000
  32         0.00000000
  33        -0.00000000
  34        -0.00000000
  35        -0.00000000
  36         0.00000000
  37         0.00000000
  38         0.00000000
  39        -0.00000000
  40        -0.00000000
  41        -0.00000000
  42         0.00002213
  43        -0.00113730
  44        -0.00641223
  45        -0.00016954
  46         0.04841390
  47        -0.00012410
  48         0.00637729
  49         0.03595583
  50         0.00095068
  51        -0.27147510
  52         0.00066450
  53        -0.03414850
  54        -0.19253271
  55        -0.00509063
  56         1.45366793
  57        -0.00031625
  58         0.01625206
  59         0.09163078
  60         0.00242275
  61        -0.69183425
Sym=    20a  
Ene=     3.6948
Spin= Alpha
Occup=    0.00000
   1         0.00000000
   2         0.00000000
   3        -0.00000000
   4         0.00000000
   5        -0.00000000
   6         0.00000000
   7        -0.00000000
   8        -0.00000000
   9         0.00000000
  10        -0.00000000
  11         0.00000000
  12        -0.00000000
  13         0.00000000
  14         0.00000000
  15        -0.00000000
  16         0.00000000
  17        -0.00000000
  18         0.00000000
  19        -0.00000000
  20         0.00000000
  21        -0.00000000
  22         0.00000000
  23        -0.00000000
  24         0.00000000
  25        -0.00000000
  26         0.00000000
  27        -0.00000000
  28         0.00000000
  29         0.00000000
  30        -0.00000000
  31        -0.00000000
  32        -0.00000000
  33         0.00000000
  34         0.00000000
  35         0.00000000
  36        -0.00000000
  37        -0.00000000
  38        -0.00000000
  39         0.00000000
  40         0.00000000
  41         0.00000000
  42         0.04318983
  43         0.00673126
  44        -0.01381928
  45        -0.01678201
  46        -0.00175070
  47        -0.24218179
  48        -0.03774470
  49         0.07748996
  50         0.09410311
  51         0.00981682
  52         1.29681101
  53         0.20211159
  54        -0.41493556
  55        -0.50389398
  56        -0.05256615
  57        -0.61718241
  58        -0.09618959
  59         0.19747745
  60         0.23981482
  61         0.02501745
Sym=    21a  
Ene=     3.6948
Spin= Alpha
Occup=    0.00000
   1        -0.00000000
   2         0.00000000
   3        -0.00000000
   4        -0.00000000
   5        -0.00000000
   6         0.00000000
   7        -0.00000000
   8         0.00000000
   9        -0.00000000
  10         0.00000000
  11        -0.00000000
  12         0.00000000
  13         0.00000000
  14        -0.00000000
  15         0.00000000
  16         0.00000000
  17         0.00000000
  18        -0.00000000
  19        -0.00000000
  20        -0.00000000
  21         0.00000000
  22         0.00000000
  23         0.00000000
  24        -0.00000000
  25        -0.00000000
  26        -0.00000000
  27         0.00000000
  28         0.00000000
  29        -0.00000000
  30         0.00000000
  31        -0.00000000
  32         0.00000000
  33        -0.00000000
  34         0.00000000
  35        -0.00000000
  36         0.00000000
  37        -0.00000000
  38         0.00000000
  39        -0.00000000
  40         0.00000000
  41        -0.00000000
  42        -0.00091204
  43         0.04297456
  44        -0.00825829
  45         0.02169104
  46        -0.00000787
  47         0.00511416
  48        -0.24097466
  49         0.04630735
  50        -0.12162987
  51         0.00004415
  52        -0.02738480
  53         1.29034723
  54        -0.24796198
  55         0.65129155
  56        -0.00023643
  57         0.01303306
  58        -0.61410614
  59         0.11801085
  60        -0.30996474
  61         0.00011252
Sym=    22a  
Ene=     3.6948
Spin= Alpha
Occup=    0.00000
   1        -0.00000000
   2         0.00000000
   3        -0.00000000
   4         0.00000000
   5        -0.00000000
   6         0.00000000
   7        -0.00000000
   8        -0.00000000
   9         0.00000000
  10        -0.00000000
  11         0.00000000
  12        -0.00000000
  13         0.00000000
  14        -0.00000000
  15        -0.00000000
  16         0.00000000
  17        -0.00000000
  18         0.00000000
  19        -0.00000000
  20         0.00000000
  21        -0.00000000
  22         0.00000000
  23        -0.00000000
  24         0.00000000
  25        -0.00000000
  26         0.00000000
  27        -0.00000000
  28         0.00000000
  29         0.00000000
  30        -0.00000000
  31        -0.00000000
  32        -0.00000000
  33         0.00000000
  34         0.00000000
  35         0.00000000
  36        -0.00000000
  37        -0.00000000
  38        -0.00000000
  39         0.00000000
  40         0.00000000
  41         0.00000000
  42         0.01629714
  43         0.00560041
  44         0.04481211
  45         0.00665287
  46         0.00608260
  47        -0.09138425
  48        -0.03140361
  49        -0.25127849
  50        -0.03730519
  51        -0.03410744
  52         0.48933533
  53         0.16815692
  54         1.34552110
  55         0.19975815
  56         0.18263515
  57        -0.23288602
  58        -0.08002978
  59        -0.64036467
  60        -0.09506953
  61        -0.08692030
Sym=    23a  
Ene=     3.6948
Spin= Alpha
Occup=    0.00000
   1         0.00000000
   2        -0.00000000
   3         0.00000000
   4         0.00000000
   5        -0.00000000
   6         0.00000000
   7        -0.00000000
   8         0.00000000
   9        -0.00000000
  10         0.00000000
  11        -0.00000000
  12         0.00000000
  13         0.00000000
  14        -0.00000000
  15        -0.00000000
  16        -0.00000000
  17        -0.00000000
  18         0.00000000
  19         0.00000000
  20         0.00000000
  21        -0.00000000
  22        -0.00000000
  23        -0.00000000
  24         0.00000000
  25         0.00000000
  26         0.00000000
  27        -0.00000000
  28        -0.00000000
  29         0.00000000
  30        -0.00000000
  31         0.00000000
  32        -0.00000000
  33         0.00000000
  34        -0.00000000
  35         0.00000000
  36        -0.00000000
  37         0.00000000
  38        -0.00000000
  39         0.00000000
  40        -0.00000000
  41         0.00000000
  42         0.01595475
  43        -0.02148405
  44        -0.00882788
  45         0.03987378
  46        -0.00154156
  47        -0.08946435
  48         0.12046922
  49         0.04950129
  50        -0.22358743
  51         0.00864414
  52         0.47905483
  53        -0.64507662
  54        -0.26506457
  55         1.19724380
  56        -0.04628678
  57        -0.22799329
  58         0.30700691
  59         0.12615037
  60        -0.56979606
  61         0.02202895
Sym=    24a  
Ene=     3.6998
Spin= Alpha
Occup=    0.00000
   1         0.00000000
   2         0.00000000
   3         0.00000000
   4         0.00000000
   5         0.00000000
   6         0.00000000
   7         0.00000000
   8         0.00000000
   9         0.00000000
  10         0.00000000
  11        -0.00000000
  12        -0.00000000
  13        -0.00000000
  14         0.00000000
  15        -0.00000000
  16         0.00000000
  17        -0.00131252
  18         0.00000000
  19        -0.00000000
  20         0.01186021
  21        -0.00000000
  22         0.00000000
  23        -0.05879218
  24         0.00000000
  25        -0.00000000
  26         0.22666064
  27        -0.00000000
  28         0.00000000
  29        -0.80632728
  30        -0.00000000
  31         0.00000000
  32         2.90007643
  33         0.00000000
  34        -0.00000000
  35        -2.83517965
  36        -0.00000000
  37         0.00000000
  38         1.40373043
  39         0.00000000
  40        -0.00000000
  41        -0.36341970
  42        -0.00000000
  43         0.00000000
  44         0.00000000
  45        -0.00000000
  46         0.00000000
  47         0.00000000
  48        -0.00000000
  49        -0.00000000
  50         0.00000000
  51        -0.00000000
  52        -0.00000000
  53         0.00000000
  54         0.00000000
  55         0.00000000
  56        -0.00000000
  57         0.00000000
  58        -0.00000000
  59        -0.00000000
  60        -0.00000000
  61         0.00000000
Sym=    25a  
Ene=     3.6998
Spin= Alpha
Occup=    0.00000
   1         0.00000000
   2        -0.00000000
   3         0.00000000
   4        -0.00000000
   5         0.00000000
   6        -0.00000000
   7         0.00000000
   8        -0.00000000
   9         0.00000000
  10        -0.00000000
  11         0.00000000
  12        -0.00000000
  13         0.00000000
  14        -0.00000000
  15         0.00000000
  16        -0.00131252
  17         0.00000000
  18        -0.00000000
  19         0.01186021
  20        -0.00000000
  21         0.00000000
  22        -0.05879218
  23         0.00000000
  24        -0.00000000
  25         0.22666064
  26        -0.00000000
  27         0.00000000
  28        -0.80632728
  29        -0.00000000
  30         0.00000000
  31         2.90007643
  32         0.00000000
  33        -0.00000000
  34        -2.83517965
  35        -0.00000000
  36         0.00000000
  37         1.40373043
  38         0.00000000
  39        -0.00000000
  40        -0.36341970
  41        -0.00000000
  42        -0.00000000
  43         0.00000000
  44         0.00000000
  45         0.00000000
  46        -0.00000000
  47         0.00000000
  48        -0.00000000
  49        -0.00000000
  50        -0.00000000
  51         0.00000000
  52        -0.00000000
  53         0.00000000
  54         0.00000000
  55         0.00000000
  56        -0.00000000
  57         0.00000000
  58        -0.00000000
  59        -0.00000000
  60        -0.00000000
  61         0.00000000
Sym=    26a  
Ene=     3.6998
Spin= Alpha
Occup=    0.00000
   1         0.00000000
   2         0.00000000
   3         0.00000000
   4         0.00000000
   5         0.00000000
   6         0.00000000
   7         0.00000000
   8         0.00000000
   9         0.00000000
  10         0.00000000
  11        -0.00000000
  12        -0.00000000
  13        -0.00000000
  14         0.00000000
  15        -0.00131252
  16         0.00000000
  17        -0.00000000
  18         0.01186021
  19        -0.00000000
  20         0.00000000
  21        -0.05879218
  22         0.00000000
  23        -0.00000000
  24         0.22666064
  25        -0.00000000
  26         0.00000000
  27        -0.80632728
  28         0.00000000
  29         0.00000000
  30         2.90007643
  31         0.00000000
  32        -0.00000000
  33        -2.83517965
  34        -0.00000000
  35         0.00000000
  36         1.40373043
  37         0.00000000
  38        -0.00000000
  39        -0.36341970
  40        -0.00000000
  41         0.00000000
  42        -0.00000000
  43         0.00000000
  44         0.00000000
  45        -0.00000000
  46         0.00000000
  47         0.00000000
  48        -0.00000000
  49        -0.00000000
  50        -0.00000000
  51        -0.00000000
  52        -0.00000000
  53         0.00000000
  54         0.00000000
  55         0.00000000
  56        -0.00000000
  57         0.00000000
  58        -0.00000000
  59        -0.00000000
  60        -0.00000000
  61         0.00000000
Sym=    27a  
Ene=     4.0215
Spin= Alpha
Occup=    0.00000
   1        -0.00000312
   2         0.00003819
   3        -0.00027243
   4         0.00147628
   5        -0.00648308
   6         0.02695447
   7        -0.08837316
   8         0.34677010
   9        -0.82789652
  10         3.10670481
  11        -6.31671788
  12         5.86280543
  13        -2.70509615
  14         0.67194925
  15         0.00000000
  16         0.00000000
  17         0.00000000
  18        -0.00000000
  19        -0.00000000
  20        -0.00000000
  21         0.00000000
  22         0.00000000
  23         0.00000000
  24        -0.00000000
  25        -0.00000000
  26        -0.00000000
  27         0.00000000
  28         0.00000000
  29        -0.00000000
  30         0.00000000
  31        -0.00000000
  32         0.00000000
  33        -0.00000000
  34         0.00000000
  35        -0.00000000
  36         0.00000000
  37        -0.00000000
  38         0.00000000
  39        -0.00000000
  40         0.00000000
  41        -0.00000000
  42         0.00000000
  43        -0.00000000
  44         0.00000000
  45         0.00000000
  46        -0.00000000
  47         0.00000000
  48         0.00000000
  49        -0.00000000
  50         0.00000000
  51         0.00000000
  52        -0.00000000
  53        -0.00000000
  54        -0.00000000
  55        -0.00000000
  56        -0.00000000
  57         0.00000000
  58         0.00000000
  59         0.00000000
  60         0.00000000
  61         0.00000000
Sym=    28a  
Ene=     4.7411
Spin= Alpha
Occup=    0.00000
   1        -0.00000000
   2        -0.00000000
   3        -0.00000000
   4        -0.00000000
   5        -0.00000000
   6        -0.00000000
   7        -0.00000000
   8        -0.00000000
   9        -0.00000000
  10        -0.00000000
  11         0.00000000
  12         0.00000000
  13         0.00000000
  14        -0.00000000
  15         0.00000000
  16        -0.00000000
  17         0.00365297
  18        -0.00000000
  19         0.00000000
  20        -0.03355060
  21         0.00000000
  22        -0.00000000
  23         0.17223192
  24        -0.00000000
  25         0.00000000
  26        -0.71464487
  27         0.00000000
  28        -0.00000000
  29         2.86764427
  30         0.00000000
  31        -0.00000000
  32        -3.05078464
  33        -0.00000000
  34         0.00000000
  35         1.90124666
  36         0.00000000
  37        -0.00000000
  38        -0.82579696
  39        -0.00000000
  40         0.00000000
  41         0.21096474
  42         0.00000000
  43        -0.00000000
  44        -0.00000000
  45         0.00000000
  46        -0.00000000
  47        -0.00000000
  48         0.00000000
  49         0.00000000
  50        -0.00000000
  51         0.00000000
  52         0.00000000
  53        -0.00000000
  54        -0.00000000
  55        -0.00000000
  56         0.00000000
  57        -0.00000000
  58         0.00000000
  59         0.00000000
  60         0.00000000
  61        -0.00000000
Sym=    29a  
Ene=     4.7411
Spin= Alpha
Occup=    0.00000
   1         0.00000000
   2        -0.00000000
   3         0.00000000
   4        -0.00000000
   5        -0.00000000
   6        -0.00000000
   7        -0.00000000
   8         0.00000000
   9        -0.00000000
  10        -0.00000000
  11         0.00000000
  12        -0.00000000
  13         0.00000000
  14        -0.00000000
  15        -0.00000000
  16         0.00365297
  17        -0.00000000
  18         0.00000000
  19        -0.03355060
  20         0.00000000
  21        -0.00000000
  22         0.17223192
  23        -0.00000000
  24         0.00000000
  25        -0.71464487
  26         0.00000000
  27        -0.00000000
  28         2.86764427
  29         0.00000000
  30        -0.00000000
  31        -3.05078464
  32        -0.00000000
  33         0.00000000
  34         1.90124666
  35         0.00000000
  36        -0.00000000
  37        -0.82579696
  38        -0.00000000
  39         0.00000000
  40         0.21096474
  41         0.00000000
  42         0.00000000
  43        -0.00000000
  44        -0.00000000
  45         0.00000000
  46         0.00000000
  47        -0.00000000
  48        -0.00000000
  49         0.00000000
  50        -0.00000000
  51        -0.00000000
  52         0.00000000
  53        -0.00000000
  54        -0.00000000
  55         0.00000000
  56         0.00000000
  57        -0.00000000
  58         0.00000000
  59         0.00000000
  60        -0.00000000
  61        -0.00000000
Sym=    30a  
Ene=     4.7411
Spin= Alpha
Occup=    0.00000
   1         0.00000000
   2         0.00000000
   3         0.00000000
   4         0.00000000
   5         0.00000000
   6         0.00000000
   7         0.00000000
   8         0.00000000
   9         0.00000000
  10         0.00000000
  11        -0.00000000
  12        -0.00000000
  13        -0.00000000
  14         0.00000000
  15         0.00365297
  16         0.00000000
  17        -0.00000000
  18        -0.03355060
  19        -0.00000000
  20         0.00000000
  21         0.17223192
  22         0.00000000
  23        -0.00000000
  24        -0.71464487
  25        -0.00000000
  26         0.00000000
  27         2.86764427
  28         0.00000000
  29         0.00000000
  30        -3.05078464
  31         0.00000000
  32        -0.00000000
  33         1.90124666
  34        -0.00000000
  35         0.00000000
  36        -0.82579696
  37         0.00000000
  38        -0.00000000
  39         0.21096474
  40        -0.00000000
  41         0.00000000
  42        -0.00000000
  43         0.00000000
  44         0.00000000
  45        -0.00000000
  46         0.00000000
  47         0.00000000
  48        -0.00000000
  49        -0.00000000
  50        -0.00000000
  51        -0.00000000
  52        -0.00000000
  53         0.00000000
  54         0.00000000
  55         0.00000000
  56        -0.00000000
  57         0.00000000
  58        -0.00000000
  59        -0.00000000
  60        -0.00000000
  61         0.00000000
Sym=    31a  
Ene=     5.1102
Spin= Alpha
Occup=    0.00000
   1        -0.00000000
   2        -0.00000000
   3         0.00000000
   4        -0.00000000
   5        -0.00000000
   6         0.00000000
   7        -0.00000000
   8         0.00000000
   9         0.00000000
  10        -0.00000000
  11         0.00000000
  12        -0.00000000
  13        -0.00000000
  14        -0.00000000
  15        -0.00000000
  16         0.00000000
  17        -0.00000000
  18         0.00000000
  19        -0.00000000
  20         0.00000000
  21        -0.00000000
  22         0.00000000
  23        -0.00000000
  24         0.00000000
  25        -0.00000000
  26         0.00000000
  27        -0.00000000
  28         0.00000000
  29         0.00000000
  30        -0.00000000
  31        -0.00000000
  32        -0.00000000
  33         0.00000000
  34         0.00000000
  35         0.00000000
  36        -0.00000000
  37        -0.00000000
  38        -0.00000000
  39         0.00000000
  40         0.00000000
  41         0.00000000
  42         0.04458366
  43        -0.14433383
  44        -0.11026082
  45        -0.09419616
  46        -0.03222393
  47        -0.32083370
  48         1.03865757
  49         0.79346081
  50         0.67785601
  51         0.23189038
  52         0.21140819
  53        -0.68440665
  54        -0.52283820
  55        -0.44666228
  56        -0.15280042
  57        -0.07160805
  58         0.23182179
  59         0.17709542
  60         0.15129317
  61         0.05175646
Sym=    32a  
Ene=     5.1102
Spin= Alpha
Occup=    0.00000
   1         0.00000000
   2         0.00000000
   3        -0.00000000
   4         0.00000000
   5        -0.00000000
   6         0.00000000
   7        -0.00000000
   8         0.00000000
   9        -0.00000000
  10         0.00000000
  11         0.00000000
  12        -0.00000000
  13         0.00000000
  14        -0.00000000
  15        -0.00000000
  16         0.00000000
  17        -0.00000000
  18         0.00000000
  19        -0.00000000
  20         0.00000000
  21        -0.00000000
  22         0.00000000
  23        -0.00000000
  24         0.00000000
  25        -0.00000000
  26         0.00000000
  27        -0.00000000
  28         0.00000000
  29         0.00000000
  30        -0.00000000
  31        -0.00000000
  32        -0.00000000
  33         0.00000000
  34         0.00000000
  35         0.00000000
  36        -0.00000000
  37        -0.00000000
  38        -0.00000000
  39         0.00000000
  40         0.00000000
  41         0.00000000
  42        -0.00177710
  43        -0.03636105
  44         0.10311618
  45        -0.00376273
  46        -0.18142854
  47         0.01278842
  48         0.26166203
  49        -0.74204641
  50         0.02707739
  51         1.30559916
  52        -0.00842673
  53        -0.17241797
  54         0.48895951
  55        -0.01784221
  56        -0.86030350
  57         0.00285430
  58         0.05840131
  59        -0.16562006
  60         0.00604350
  61         0.29140146
Sym=    33a  
Ene=     5.1102
Spin= Alpha
Occup=    0.00000
   1        -0.00000000
   2         0.00000000
   3        -0.00000000
   4         0.00000000
   5        -0.00000000
   6         0.00000000
   7        -0.00000000
   8         0.00000000
   9        -0.00000000
  10         0.00000000
  11        -0.00000000
  12         0.00000000
  13        -0.00000000
  14         0.00000000
  15         0.00000000
  16         0.00000000
  17        -0.00000000
  18        -0.00000000
  19        -0.00000000
  20         0.00000000
  21         0.00000000
  22         0.00000000
  23        -0.00000000
  24        -0.00000000
  25        -0.00000000
  26         0.00000000
  27         0.00000000
  28         0.00000000
  29         0.00000000
  30         0.00000000
  31        -0.00000000
  32        -0.00000000
  33        -0.00000000
  34         0.00000000
  35         0.00000000
  36         0.00000000
  37        -0.00000000
  38        -0.00000000
  39        -0.00000000
  40         0.00000000
  41         0.00000000
  42        -0.05302086
  43        -0.07960312
  44        -0.06202972
  45         0.17716901
  46        -0.02245639
  47         0.38154965
  48         0.57284135
  49         0.44637936
  50        -1.27494667
  51         0.16160104
  52        -0.25141599
  53        -0.37746456
  54        -0.29413447
  55         0.84010554
  56        -0.10648439
  57         0.08515946
  58         0.12785456
  59         0.09962904
  60        -0.28456002
  61         0.03606833
Sym=    34a  
Ene=     5.1102
Spin= Alpha
Occup=    0.00000
   1        -0.00000000
   2         0.00000000
   3        -0.00000000
   4         0.00000000
   5         0.00000000
   6         0.00000000
   7         0.00000000
   8        -0.00000000
   9         0.00000000
  10        -0.00000000
  11         0.00000000
  12         0.00000000
  13        -0.00000000
  14         0.00000000
  15         0.00000000
  16         0.00000000
  17         0.00000000
  18        -0.00000000
  19        -0.00000000
  20        -0.00000000
  21         0.00000000
  22         0.00000000
  23         0.00000000
  24        -0.00000000
  25        -0.00000000
  26        -0.00000000
  27         0.00000000
  28         0.00000000
  29        -0.00000000
  30         0.00000000
  31        -0.00000000
  32         0.00000000
  33        -0.00000000
  34         0.00000000
  35        -0.00000000
  36         0.00000000
  37        -0.00000000
  38         0.00000000
  39        -0.00000000
  40         0.00000000
  41        -0.00000000
  42        -0.02733012
  43         0.12494245
  44        -0.13476444
  45        -0.01204153
  46        -0.10111726
  47         0.19667346
  48        -0.89911301
  49         0.96979417
  50         0.08665348
  51         0.72766172
  52        -0.12959480
  53         0.59245601
  54        -0.63903022
  55        -0.05709892
  56        -0.47948095
  57         0.04389627
  58        -0.20067633
  59         0.21645191
  60         0.01934051
  61         0.16240948
Sym=    35a  
Ene=     5.1102
Spin= Alpha
Occup=    0.00000
   1        -0.00000000
   2         0.00000000
   3         0.00000000
   4        -0.00000000
   5         0.00000000
   6        -0.00000000
   7         0.00000000
   8        -0.00000000
   9         0.00000000
  10        -0.00000000
  11         0.00000000
  12         0.00000000
  13        -0.00000000
  14         0.00000000
  15         0.00000000
  16        -0.00000000
  17         0.00000000
  18        -0.00000000
  19         0.00000000
  20        -0.00000000
  21         0.00000000
  22        -0.00000000
  23         0.00000000
  24        -0.00000000
  25         0.00000000
  26        -0.00000000
  27         0.00000000
  28        -0.00000000
  29        -0.00000000
  30         0.00000000
  31         0.00000000
  32         0.00000000
  33        -0.00000000
  34        -0.00000000
  35        -0.00000000
  36         0.00000000
  37         0.00000000
  38         0.00000000
  39        -0.00000000
  40         0.00000000
  41        -0.00000000
  42        -0.19834237
  43        -0.02805441
  44         0.00944286
  45        -0.06684139
  46         0.01431847
  47         1.42731475
  48         0.20188564
  49        -0.06795284
  50         0.48100518
  51        -0.10303885
  52        -0.94050602
  53        -0.13302929
  54         0.04477643
  55        -0.31695060
  56         0.06789579
  57         0.31856761
  58         0.04505960
  59        -0.01516664
  60         0.10735731
  61        -0.02299762
Sym=    36a  
Ene=     6.3310
Spin= Alpha
Occup=    0.00000
   1        -0.00001031
   2         0.00012580
   3        -0.00090211
   4         0.00483292
   5        -0.02209188
   6         0.08548907
   7        -0.34248344
   8         1.06035978
   9        -4.16594371
  10         7.45184985
  11        -6.28981436
  12         3.36647779
  13        -1.47427919
  14         0.34568922
  15         0.00000000
  16        -0.00000000
  17         0.00000000
  18        -0.00000000
  19         0.00000000
  20        -0.00000000
  21         0.00000000
  22        -0.00000000
  23         0.00000000
  24        -0.00000000
  25         0.00000000
  26        -0.00000000
  27         0.00000000
  28         0.00000000
  29        -0.00000000
  30         0.00000000
  31         0.00000000
  32         0.00000000
  33        -0.00000000
  34        -0.00000000
  35        -0.00000000
  36         0.00000000
  37         0.00000000
  38         0.00000000
  39        -0.00000000
  40         0.00000000
  41        -0.00000000
  42        -0.00000000
  43         0.00000000
  44        -0.00000000
  45        -0.00000000
  46         0.00000000
  47         0.00000000
  48        -0.00000000
  49         0.00000000
  50         0.00000000
  51        -0.00000000
  52        -0.00000000
  53         0.00000000
  54        -0.00000000
  55        -0.00000000
  56         0.00000000
  57         0.00000000
  58        -0.00000000
  59        -0.00000000
  60         0.00000000
  61         0.00000000
Sym=    37a  
Ene=     7.3443
Spin= Alpha
Occup=    0.00000
   1         0.00000000
   2         0.00000000
   3         0.00000000
   4         0.00000000
   5         0.00000000
   6         0.00000000
   7         0.00000000
   8         0.00000000
   9         0.00000000
  10         0.00000000
  11         0.00000000
  12         0.00000000
  13         0.00000000
  14        -0.00000000
  15        -0.00000000
  16         0.00000000
  17        -0.01060309
  18         0.00000000
  19        -0.00000000
  20         0.10127846
  21        -0.00000000
  22         0.00000000
  23        -0.56339860
  24         0.00000000
  25        -0.00000000
  26         2.67993504
  27        -0.00000000
  28         0.00000000
  29        -2.96408760
  30        -0.00000000
  31         0.00000000
  32         2.01107460
  33         0.00000000
  34        -0.00000000
  35        -1.10320054
  36        -0.00000000
  37         0.00000000
  38         0.47313604
  39         0.00000000
  40        -0.00000000
  41        -0.12253614
  42        -0.00000000
  43         0.00000000
  44        -0.00000000
  45         0.00000000
  46         0.00000000
  47        -0.00000000
  48         0.00000000
  49         0.00000000
  50        -0.00000000
  51        -0.00000000
  52         0.00000000
  53        -0.00000000
  54        -0.00000000
  55         0.00000000
  56         0.00000000
  57        -0.00000000
  58         0.00000000
  59         0.00000000
  60        -0.00000000
  61        -0.00000000
Sym=    38a  
Ene=     7.3443
Spin= Alpha
Occup=    0.00000
   1         0.00000000
   2        -0.00000000
   3         0.00000000
   4        -0.00000000
   5        -0.00000000
   6         0.00000000
   7        -0.00000000
   8         0.00000000
   9        -0.00000000
  10         0.00000000
  11        -0.00000000
  12         0.00000000
  13        -0.00000000
  14         0.00000000
  15        -0.00000000
  16        -0.01060309
  17        -0.00000000
  18         0.00000000
  19         0.10127846
  20         0.00000000
  21        -0.00000000
  22        -0.56339860
  23        -0.00000000
  24         0.00000000
  25         2.67993504
  26         0.00000000
  27        -0.00000000
  28        -2.96408760
  29         0.00000000
  30        -0.00000000
  31         2.01107460
  32        -0.00000000
  33         0.00000000
  34        -1.10320054
  35         0.00000000
  36        -0.00000000
  37         0.47313604
  38        -0.00000000
  39         0.00000000
  40        -0.12253614
  41         0.00000000
  42         0.00000000
  43        -0.00000000
  44         0.00000000
  45         0.00000000
  46        -0.00000000
  47         0.00000000
  48         0.00000000
  49        -0.00000000
  50         0.00000000
  51         0.00000000
  52         0.00000000
  53        -0.00000000
  54         0.00000000
  55        -0.00000000
  56        -0.00000000
  57        -0.00000000
  58         0.00000000
  59         0.00000000
  60         0.00000000
  61        -0.00000000
Sym=    39a  
Ene=     7.3443
Spin= Alpha
Occup=    0.00000
   1        -0.00000000
   2        -0.00000000
   3        -0.00000000
   4        -0.00000000
   5        -0.00000000
   6        -0.00000000
   7        -0.00000000
   8        -0.00000000
   9        -0.00000000
  10        -0.00000000
  11         0.00000000
  12         0.00000000
  13         0.00000000
  14        -0.00000000
  15        -0.01060309
  16        -0.00000000
  17         0.00000000
  18         0.10127846
  19         0.00000000
  20        -0.00000000
  21        -0.56339860
  22        -0.00000000
  23         0.00000000
  24         2.67993504
  25         0.00000000
  26        -0.00000000
  27        -2.96408760
  28        -0.00000000
  29        -0.00000000
  30         2.01107460
  31        -0.00000000
  32         0.00000000
  33        -1.10320054
  34         0.00000000
  35        -0.00000000
  36         0.47313604
  37        -0.00000000
  38         0.00000000
  39        -0.12253614
  40         0.00000000
  41        -0.00000000
  42         0.00000000
  43        -0.00000000
  44        -0.00000000
  45         0.00000000
  46        -0.00000000
  47        -0.00000000
  48         0.00000000
  49         0.00000000
  50         0.00000000
  51         0.00000000
  52         0.00000000
  53        -0.00000000
  54        -0.00000000
  55        -0.00000000
  56         0.00000000
  57        -0.00000000
  58         0.00000000
  59         0.00000000
  60         0.00000000
  61        -0.00000000
Sym=    40a  
Ene=     9.3895
Spin= Alpha
Occup=    0.00000
   1        -0.00000000
   2        -0.00000000
   3         0.00000000
   4        -0.00000000
   5         0.00000000
   6        -0.00000000
   7         0.00000000
   8        -0.00000000
   9         0.00000000
  10        -0.00000000
  11        -0.00000000
  12         0.00000000
  13        -0.00000000
  14         0.00000000
  15         0.00000000
  16         0.00000000
  17         0.00000000
  18        -0.00000000
  19        -0.00000000
  20        -0.00000000
  21         0.00000000
  22         0.00000000
  23         0.00000000
  24        -0.00000000
  25        -0.00000000
  26        -0.00000000
  27         0.00000000
  28         0.00000000
  29        -0.00000000
  30         0.00000000
  31        -0.00000000
  32         0.00000000
  33        -0.00000000
  34         0.00000000
  35        -0.00000000
  36         0.00000000
  37         0.00000000
  38         0.00000000
  39        -0.00000000
  40        -0.00000000
  41        -0.00000000
  42        -0.04493671
  43         1.21563129
  44        -0.20339567
  45        -0.05550861
  46         0.60434172
  47         0.03366810
  48        -0.91079180
  49         0.15239087
  50         0.04158892
  51        -0.45279312
  52        -0.01566382
  53         0.42373870
  54        -0.07089865
  55        -0.01934892
  56         0.21065843
  57         0.00515292
  58        -0.13939722
  59         0.02332351
  60         0.00636521
  61        -0.06930025
Sym=    41a  
Ene=     9.3895
Spin= Alpha
Occup=    0.00000
   1        -0.00000000
   2        -0.00000000
   3         0.00000000
   4        -0.00000000
   5         0.00000000
   6         0.00000000
   7        -0.00000000
   8         0.00000000
   9        -0.00000000
  10         0.00000000
  11         0.00000000
  12        -0.00000000
  13         0.00000000
  14        -0.00000000
  15        -0.00000000
  16         0.00000000
  17        -0.00000000
  18         0.00000000
  19        -0.00000000
  20         0.00000000
  21        -0.00000000
  22         0.00000000
  23        -0.00000000
  24         0.00000000
  25        -0.00000000
  26         0.00000000
  27        -0.00000000
  28         0.00000000
  29         0.00000000
  30        -0.00000000
  31        -0.00000000
  32        -0.00000000
  33         0.00000000
  34         0.00000000
  35         0.00000000
  36        -0.00000000
  37        -0.00000000
  38        -0.00000000
  39         0.00000000
  40        -0.00000000
  41         0.00000000
  42         0.46092533
  43         0.57987372
  44         0.26880117
  45         0.53177640
  46        -0.99283069
  47        -0.34534074
  48        -0.43446087
  49        -0.20139487
  50        -0.39842474
  51         0.74386210
  52         0.16066705
  53         0.20212949
  54         0.09369737
  55         0.18536397
  56        -0.34607598
  57        -0.05285460
  58        -0.06649449
  59        -0.03082360
  60        -0.06097914
  61         0.11384853
Sym=    42a  
Ene=     9.3895
Spin= Alpha
Occup=    0.00000
   1         0.00000000
   2        -0.00000000
   3         0.00000000
   4        -0.00000000
   5         0.00000000
   6        -0.00000000
   7         0.00000000
   8        -0.00000000
   9         0.00000000
  10         0.00000000
  11        -0.00000000
  12         0.00000000
  13        -0.00000000
  14         0.00000000
  15         0.00000000
  16        -0.00000000
  17         0.00000000
  18        -0.00000000
  19         0.00000000
  20        -0.00000000
  21         0.00000000
  22        -0.00000000
  23         0.00000000
  24        -0.00000000
  25         0.00000000
  26        -0.00000000
  27         0.00000000
  28        -0.00000000
  29        -0.00000000
  30         0.00000000
  31         0.00000000
  32         0.00000000
  33        -0.00000000
  34        -0.00000000
  35        -0.00000000
  36         0.00000000
  37         0.00000000
  38         0.00000000
  39        -0.00000000
  40         0.00000000
  41        -0.00000000
  42        -0.71091344
  43         0.02575127
  44         0.96270904
  45         0.61677712
  46         0.27599803
  47         0.53264023
  48        -0.01929372
  49        -0.72129395
  50        -0.46211014
  51        -0.20678700
  52        -0.24780667
  53         0.00897625
  54         0.33557632
  55         0.21499310
  56         0.09620602
  57         0.08152090
  58        -0.00295292
  59        -0.11039446
  60        -0.07072623
  61        -0.03164887
Sym=    43a  
Ene=     9.3895
Spin= Alpha
Occup=    0.00000
   1         0.00000000
   2        -0.00000000
   3         0.00000000
   4        -0.00000000
   5         0.00000000
   6         0.00000000
   7        -0.00000000
   8         0.00000000
   9        -0.00000000
  10         0.00000000
  11         0.00000000
  12        -0.00000000
  13         0.00000000
  14        -0.00000000
  15        -0.00000000
  16         0.00000000
  17        -0.00000000
  18         0.00000000
  19        -0.00000000
  20         0.00000000
  21        -0.00000000
  22         0.00000000
  23        -0.00000000
  24         0.00000000
  25        -0.00000000
  26         0.00000000
  27        -0.00000000
  28         0.00000000
  29         0.00000000
  30        -0.00000000
  31        -0.00000000
  32        -0.00000000
  33         0.00000000
  34         0.00000000
  35         0.00000000
  36        -0.00000000
  37         0.00000000
  38        -0.00000000
  39         0.00000000
  40         0.00000000
  41         0.00000000
  42         0.72573656
  43        -0.27341659
  44        -0.22692272
  45         0.92789947
  46         0.61279453
  47        -0.54374621
  48         0.20485290
  49         0.17001812
  50        -0.69521346
  51        -0.45912625
  52         0.25297363
  53        -0.09530619
  54        -0.07909959
  55         0.32344258
  56         0.21360486
  57        -0.08322068
  58         0.03135286
  59         0.02602137
  60        -0.10640283
  61        -0.07026954
Sym=    44a  
Ene=     9.3895
Spin= Alpha
Occup=    0.00000
   1         0.00000000
   2        -0.00000000
   3         0.00000000
   4        -0.00000000
   5        -0.00000000
   6         0.00000000
   7        -0.00000000
   8         0.00000000
   9        -0.00000000
  10        -0.00000000
  11         0.00000000
  12        -0.00000000
  13         0.00000000
  14        -0.00000000
  15        -0.00000000
  16        -0.00000000
  17        -0.00000000
  18         0.00000000
  19         0.00000000
  20         0.00000000
  21        -0.00000000
  22        -0.00000000
  23        -0.00000000
  24         0.00000000
  25         0.00000000
  26         0.00000000
  27        -0.00000000
  28        -0.00000000
  29         0.00000000
  30        -0.00000000
  31         0.00000000
  32        -0.00000000
  33         0.00000000
  34        -0.00000000
  35         0.00000000
  36        -0.00000000
  37         0.00000000
  38        -0.00000000
  39         0.00000000
  40         0.00000000
  41         0.00000000
  42         0.80180779
  43         0.00509266
  44         0.89304658
  45        -0.60181382
  46         0.29466072
  47        -0.60074133
  48        -0.00381560
  49        -0.66910050
  50         0.45089913
  51        -0.22076971
  52         0.27949017
  53         0.00177518
  54         0.31129373
  55        -0.20977726
  56         0.10271136
  57        -0.09194381
  58        -0.00058398
  59        -0.10240622
  60         0.06901038
  61        -0.03378893
Sym=    45a  
Ene=    12.9180
Spin= Alpha
Occup=    0.00000
   1        -0.00003186
   2         0.00038943
   3        -0.00278825
   4         0.01515137
   5        -0.06847245
   6         0.28957546
   7        -1.09487426
   8         4.64730580
   9        -7.42915944
  10         6.06688900
  11        -3.65780043
  12         1.90032205
  13        -0.75189486
  14         0.18534999
  15        -0.00000000
  16         0.00000000
  17        -0.00000000
  18         0.00000000
  19        -0.00000000
  20         0.00000000
  21        -0.00000000
  22         0.00000000
  23        -0.00000000
  24         0.00000000
  25        -0.00000000
  26         0.00000000
  27        -0.00000000
  28        -0.00000000
  29         0.00000000
  30        -0.00000000
  31        -0.00000000
  32        -0.00000000
  33         0.00000000
  34         0.00000000
  35         0.00000000
  36        -0.00000000
  37        -0.00000000
  38        -0.00000000
  39         0.00000000
  40        -0.00000000
  41         0.00000000
  42        -0.00000000
  43        -0.00000000
  44         0.00000000
  45        -0.00000000
  46        -0.00000000
  47         0.00000000
  48        -0.00000000
  49         0.00000000
  50         0.00000000
  51        -0.00000000
  52        -0.00000000
  53         0.00000000
  54        -0.00000000
  55        -0.00000000
  56         0.00000000
  57         0.00000000
  58        -0.00000000
  59        -0.00000000
  60         0.00000000
  61        -0.00000000
Sym=    46a  
Ene=    14.1670
Spin= Alpha
Occup=    0.00000
   1         0.00000000
   2         0.00000000
   3         0.00000000
   4         0.00000000
   5         0.00000000
   6         0.00000000
   7         0.00000000
   8         0.00000000
   9         0.00000000
  10         0.00000000
  11        -0.00000000
  12        -0.00000000
  13        -0.00000000
  14         0.00000000
  15        -0.00000000
  16         0.00000000
  17         0.03357444
  18         0.00000000
  19        -0.00000000
  20        -0.35409953
  21        -0.00000000
  22         0.00000000
  23         2.34081123
  24         0.00000000
  25        -0.00000000
  26        -2.65216097
  27        -0.00000000
  28         0.00000000
  29         1.88060307
  30        -0.00000000
  31         0.00000000
  32        -1.13288768
  33         0.00000000
  34        -0.00000000
  35         0.61595319
  36        -0.00000000
  37         0.00000000
  38        -0.26753668
  39         0.00000000
  40        -0.00000000
  41         0.07014175
  42        -0.00000000
  43         0.00000000
  44         0.00000000
  45        -0.00000000
  46         0.00000000
  47         0.00000000
  48        -0.00000000
  49        -0.00000000
  50         0.00000000
  51        -0.00000000
  52        -0.00000000
  53         0.00000000
  54         0.00000000
  55         0.00000000
  56        -0.00000000
  57         0.00000000
  58        -0.00000000
  59        -0.00000000
  60        -0.00000000
  61         0.00000000
Sym=    47a  
Ene=    14.1670
Spin= Alpha
Occup=    0.00000
   1        -0.00000000
   2        -0.00000000
   3         0.00000000
   4        -0.00000000
   5         0.00000000
   6        -0.00000000
   7         0.00000000
   8        -0.00000000
   9         0.00000000
  10        -0.00000000
  11         0.00000000
  12        -0.00000000
  13         0.00000000
  14        -0.00000000
  15         0.00000000
  16         0.03357444
  17         0.00000000
  18        -0.00000000
  19        -0.35409953
  20        -0.00000000
  21         0.00000000
  22         2.34081123
  23         0.00000000
  24        -0.00000000
  25        -2.65216097
  26        -0.00000000
  27         0.00000000
  28         1.88060307
  29        -0.00000000
  30         0.00000000
  31        -1.13288768
  32         0.00000000
  33        -0.00000000
  34         0.61595319
  35        -0.00000000
  36         0.00000000
  37        -0.26753668
  38         0.00000000
  39        -0.00000000
  40         0.07014175
  41        -0.00000000
  42         0.00000000
  43        -0.00000000
  44         0.00000000
  45         0.00000000
  46        -0.00000000
  47        -0.00000000
  48         0.00000000
  49         0.00000000
  50        -0.00000000
  51         0.00000000
  52        -0.00000000
  53        -0.00000000
  54         0.00000000
  55         0.00000000
  56        -0.00000000
  57         0.00000000
  58        -0.00000000
  59        -0.00000000
  60        -0.00000000
  61         0.00000000
Sym=    48a  
Ene=    14.1670
Spin= Alpha
Occup=    0.00000
   1         0.00000000
   2         0.00000000
   3         0.00000000
   4         0.00000000
   5         0.00000000
   6         0.00000000
   7         0.00000000
   8         0.00000000
   9         0.00000000
  10         0.00000000
  11        -0.00000000
  12        -0.00000000
  13        -0.00000000
  14         0.00000000
  15         0.03357444
  16         0.00000000
  17        -0.00000000
  18        -0.35409953
  19        -0.00000000
  20         0.00000000
  21         2.34081123
  22         0.00000000
  23        -0.00000000
  24        -2.65216097
  25        -0.00000000
  26         0.00000000
  27         1.88060307
  28         0.00000000
  29         0.00000000
  30        -1.13288768
  31         0.00000000
  32        -0.00000000
  33         0.61595319
  34        -0.00000000
  35         0.00000000
  36        -0.26753668
  37         0.00000000
  38        -0.00000000
  39         0.07014175
  40        -0.00000000
  41         0.00000000
  42        -0.00000000
  43         0.00000000
  44         0.00000000
  45        -0.00000000
  46         0.00000000
  47         0.00000000
  48        -0.00000000
  49        -0.00000000
  50        -0.00000000
  51        -0.00000000
  52        -0.00000000
  53         0.00000000
  54         0.00000000
  55         0.00000000
  56        -0.00000000
  57         0.00000000
  58        -0.00000000
  59        -0.00000000
  60        -0.00000000
  61         0.00000000
Sym=    49a  
Ene=    30.4350
Spin= Alpha
Occup=    0.00000
   1         0.00009357
   2        -0.00114447
   3         0.00824528
   4        -0.04511140
   5         0.21350682
   6        -0.93459385
   7         4.27825707
   8        -6.47778422
   9         5.35060710
  10        -3.53810603
  11         2.02284363
  12        -0.98613605
  13         0.43237491
  14        -0.10353417
  15         0.00000000
  16         0.00000000
  17         0.00000000
  18        -0.00000000
  19        -0.00000000
  20        -0.00000000
  21         0.00000000
  22         0.00000000
  23         0.00000000
  24        -0.00000000
  25        -0.00000000
  26        -0.00000000
  27         0.00000000
  28         0.00000000
  29        -0.00000000
  30         0.00000000
  31        -0.00000000
  32         0.00000000
  33        -0.00000000
  34         0.00000000
  35        -0.00000000
  36         0.00000000
  37        -0.00000000
  38         0.00000000
  39        -0.00000000
  40         0.00000000
  41        -0.00000000
  42         0.00000000
  43        -0.00000000
  44        -0.00000000
  45         0.00000000
  46         0.00000000
  47        -0.00000000
  48        -0.00000000
  49        -0.00000000
  50        -0.00000000
  51         0.00000000
  52         0.00000000
  53        -0.00000000
  54        -0.00000000
  55         0.00000000
  56         0.00000000
  57        -0.00000000
  58         0.00000000
  59         0.00000000
  60        -0.00000000
  61         0.00000000
Sym=    50a  
Ene=    34.0240
Spin= Alpha
Occup=    0.00000
   1        -0.00000000
   2        -0.00000000
   3        -0.00000000
   4        -0.00000000
   5        -0.00000000
   6        -0.00000000
   7        -0.00000000
   8        -0.00000000
   9        -0.00000000
  10        -0.00000000
  11         0.00000000
  12         0.00000000
  13         0.00000000
  14        -0.00000000
  15         0.00000000
  16        -0.00000000
  17        -0.13266498
  18        -0.00000000
  19         0.00000000
  20         1.84676789
  21         0.00000000
  22        -0.00000000
  23        -2.08590579
  24        -0.00000000
  25         0.00000000
  26         1.54451447
  27         0.00000000
  28        -0.00000000
  29        -0.99148580
  30         0.00000000
  31        -0.00000000
  32         0.59665165
  33        -0.00000000
  34         0.00000000
  35        -0.32928619
  36         0.00000000
  37        -0.00000000
  38         0.14465487
  39        -0.00000000
  40         0.00000000
  41        -0.03819989
  42         0.00000000
  43        -0.00000000
  44        -0.00000000
  45         0.00000000
  46        -0.00000000
  47        -0.00000000
  48         0.00000000
  49         0.00000000
  50        -0.00000000
  51         0.00000000
  52         0.00000000
  53        -0.00000000
  54        -0.00000000
  55        -0.00000000
  56         0.00000000
  57        -0.00000000
  58         0.00000000
  59         0.00000000
  60         0.00000000
  61        -0.00000000
Sym=    51a  
Ene=    34.0240
Spin= Alpha
Occup=    0.00000
   1         0.00000000
   2        -0.00000000
   3         0.00000000
   4        -0.00000000
   5         0.00000000
   6        -0.00000000
   7         0.00000000
   8        -0.00000000
   9         0.00000000
  10        -0.00000000
  11         0.00000000
  12        -0.00000000
  13         0.00000000
  14        -0.00000000
  15        -0.00000000
  16        -0.13266498
  17        -0.00000000
  18         0.00000000
  19         1.84676789
  20         0.00000000
  21        -0.00000000
  22        -2.08590579
  23        -0.00000000
  24         0.00000000
  25         1.54451447
  26         0.00000000
  27        -0.00000000
  28        -0.99148580
  29         0.00000000
  30        -0.00000000
  31         0.59665165
  32        -0.00000000
  33         0.00000000
  34        -0.32928619
  35         0.00000000
  36        -0.00000000
  37         0.14465487
  38        -0.00000000
  39         0.00000000
  40        -0.03819989
  41         0.00000000
  42        -0.00000000
  43         0.00000000
  44        -0.00000000
  45        -0.00000000
  46         0.00000000
  47         0.00000000
  48        -0.00000000
  49        -0.00000000
  50         0.00000000
  51        -0.00000000
  52         0.00000000
  53        -0.00000000
  54        -0.00000000
  55        -0.00000000
  56         0.00000000
  57        -0.00000000
  58         0.00000000
  59         0.00000000
  60         0.00000000
  61        -0.00000000
Sym=    52a  
Ene=    34.0240
Spin= Alpha
Occup=    0.00000
   1        -0.00000000
   2        -0.00000000
   3        -0.00000000
   4        -0.00000000
   5        -0.00000000
   6        -0.00000000
   7        -0.00000000
   8        -0.00000000
   9        -0.00000000
  10        -0.00000000
  11         0.00000000
  12         0.00000000
  13         0.00000000
  14        -0.00000000
  15        -0.13266498
  16        -0.00000000
  17         0.00000000
  18         1.84676789
  19         0.00000000
  20        -0.00000000
  21        -2.08590579
  22        -0.00000000
  23         0.00000000
  24         1.54451447
  25         0.00000000
  26        -0.00000000
  27        -0.99148580
  28        -0.00000000
  29        -0.00000000
  30         0.59665165
  31        -0.00000000
  32         0.00000000
  33        -0.32928619
  34         0.00000000
  35        -0.00000000
  36         0.14465487
  37        -0.00000000
  38         0.00000000
  39        -0.03819989
  40         0.00000000
  41        -0.00000000
  42         0.00000000
  43        -0.00000000
  44        -0.00000000
  45         0.00000000
  46        -0.00000000
  47        -0.00000000
  48         0.00000000
  49         0.00000000
  50         0.00000000
  51         0.00000000
  52         0.00000000
  53        -0.00000000
  54        -0.00000000
  55        -0.00000000
  56         0.00000000
  57        -0.00000000
  58         0.00000000
  59         0.00000000
  60         0.00000000
  61        -0.00000000
