[MOLDEN FORMAT]
[N_ATOMS]
                    1
[ATOMS] (AU)
BE          1      4           0.00000000      0.00000000      0.00000000
[5D]
[CHARGE] (MULLIKEN)
  -6.7501559897209518E-014
[GTO] (AU)
   1
   s   1
  0.227869992E+05  0.100000000E+01
   s   1
  0.339592433E+04  0.100000000E+01
   s   1
  0.765672853E+03  0.100000000E+01
   s   1
  0.213222663E+03  0.100000000E+01
   s   1
  0.676940323E+02  0.100000000E+01
   s   1
  0.235357822E+02  0.100000000E+01
   s   1
  0.878242261E+01  0.100000000E+01
   s   1
  0.349236764E+01  0.100000000E+01
   s   1
  0.146230901E+01  0.100000000E+01
   s   1
  0.612875305E+00  0.100000000E+01
   s   1
  0.259489802E+00  0.100000000E+01
   s   1
  0.104905232E+00  0.100000000E+01
   s   1
  0.427239890E-01  0.100000000E+01
   s   1
  0.149529430E-01  0.100000000E+01
   p   1
  0.337101840E+02  0.100000000E+01
   p   1
  0.805764950E+01  0.100000000E+01
   p   1
  0.283647140E+01  0.100000000E+01
   p   1
  0.109996570E+01  0.100000000E+01
   p   1
  0.443396400E+00  0.100000000E+01
   p   1
  0.182226400E+00  0.100000000E+01
   p   1
  0.757241000E-01  0.100000000E+01
   p   1
  0.316854000E-01  0.100000000E+01
   p   1
  0.110899000E-01  0.100000000E+01
   d   1
  0.140000000E+01  0.100000000E+01
   d   1
  0.490000000E+00  0.100000000E+01
   d   1
  0.171500000E+00  0.100000000E+01
   d   1
  0.600250000E-01  0.100000000E+01
 
[MO]
Sym=     1a  
Ene=     0.0000
Spin= Alpha
Occup=    1.99687
   1         0.00005296
   2         0.00041535
   3         0.00221163
   4         0.00950112
   5         0.03462103
   6         0.10549759
   7         0.24478099
   8         0.38603178
   9         0.31368613
  10         0.06656496
  11        -0.00470955
  12        -0.00589799
  13        -0.00293199
  14         0.00009567
  15         0.00000000
  16        -0.00000000
  17        -0.00000000
  18         0.00000000
  19        -0.00000000
  20        -0.00000000
  21        -0.00000000
  22         0.00000000
  23         0.00000000
  24         0.00000000
  25        -0.00000000
  26        -0.00000000
  27        -0.00000000
  28         0.00000000
  29         0.00000000
  30         0.00000000
  31        -0.00000000
  32        -0.00000000
  33        -0.00000000
  34         0.00000000
  35         0.00000000
  36         0.00000000
  37        -0.00000000
  38        -0.00000000
  39        -0.00000000
  40         0.00000000
  41         0.00000000
  42         0.00000000
  43         0.00000000
  44         0.00000000
  45         0.00000000
  46         0.00000000
  47        -0.00000000
  48        -0.00000000
  49        -0.00000000
  50        -0.00000000
  51        -0.00000000
  52         0.00000000
  53         0.00000000
  54         0.00000000
  55         0.00000000
  56         0.00000000
  57        -0.00000000
  58        -0.00000000
  59        -0.00000000
  60        -0.00000000
  61        -0.00000000
Sym=     2a  
Ene=     0.0000
Spin= Alpha
Occup=    1.80733
   1        -0.00000931
   2        -0.00007304
   3        -0.00038933
   4        -0.00167998
   5        -0.00619709
   6        -0.01951282
   7        -0.04866681
   8        -0.09263319
   9        -0.13023815
  10        -0.06251624
  11         0.28692193
  12         0.62426130
  13         0.23486339
  14        -0.00180943
  15        -0.00000000
  16         0.00000000
  17         0.00000000
  18        -0.00000000
  19         0.00000000
  20         0.00000000
  21        -0.00000000
  22         0.00000000
  23         0.00000000
  24         0.00000000
  25        -0.00000001
  26        -0.00000000
  27        -0.00000001
  28         0.00000001
  29         0.00000000
  30         0.00000001
  31        -0.00000001
  32        -0.00000000
  33        -0.00000000
  34         0.00000001
  35         0.00000000
  36         0.00000000
  37        -0.00000000
  38        -0.00000000
  39        -0.00000000
  40        -0.00000000
  41        -0.00000000
  42        -0.00000000
  43         0.00000000
  44        -0.00000000
  45        -0.00000000
  46        -0.00000000
  47         0.00000000
  48        -0.00000000
  49        -0.00000000
  50         0.00000000
  51        -0.00000000
  52        -0.00000000
  53         0.00000000
  54         0.00000000
  55        -0.00000000
  56         0.00000000
  57         0.00000000
  58         0.00000000
  59         0.00000000
  60         0.00000000
  61         0.00000000
Sym=     3a  
Ene=     0.0000
Spin= Alpha
Occup=    0.00063
   1         0.00000000
   2        -0.00000000
   3         0.00000001
   4        -0.00000003
   5         0.00000015
   6        -0.00000060
   7         0.00000205
   8        -0.00000382
   9         0.00000459
  10        -0.00000384
  11         0.00000213
  12        -0.00000088
  13         0.00000047
  14        -0.00000024
  15         0.00010897
  16         0.07936893
  17         0.00003066
  18         0.00079992
  19         0.58264376
  20         0.00022508
  21         0.00062105
  22         0.45235385
  23         0.00017475
  24         0.00002269
  25         0.01653009
  26         0.00000639
  27        -0.00005850
  28        -0.04261373
  29        -0.00001646
  30        -0.00014534
  31        -0.10586239
  32        -0.00004090
  33        -0.00007028
  34        -0.05119200
  35        -0.00001978
  36        -0.00000326
  37        -0.00237247
  38        -0.00000092
  39        -0.00000004
  40        -0.00002545
  41        -0.00000001
  42        -0.00000000
  43        -0.00000000
  44         0.00000000
  45        -0.00000000
  46        -0.00000000
  47         0.00000000
  48        -0.00000000
  49        -0.00000000
  50         0.00000000
  51         0.00000000
  52        -0.00000000
  53         0.00000000
  54         0.00000000
  55        -0.00000000
  56        -0.00000000
  57        -0.00000000
  58        -0.00000000
  59        -0.00000000
  60        -0.00000000
  61         0.00000000
Sym=     4a  
Ene=     0.0000
Spin= Alpha
Occup=    0.00063
   1         0.00000000
   2         0.00000000
   3        -0.00000000
   4         0.00000000
   5        -0.00000000
   6         0.00000001
   7        -0.00000001
   8         0.00000002
   9        -0.00000001
  10        -0.00000001
  11         0.00000002
  12        -0.00000001
  13         0.00000000
  14        -0.00000000
  15         0.03357403
  16        -0.00007388
  17         0.07191810
  18         0.24646550
  19        -0.00054233
  20         0.52794768
  21         0.19135138
  22        -0.00042105
  23         0.40988907
  24         0.00699243
  25        -0.00001539
  26         0.01497831
  27        -0.01802613
  28         0.00003967
  29        -0.03861332
  30        -0.04478113
  31         0.00009854
  32        -0.09592455
  33        -0.02165485
  34         0.00004765
  35        -0.04638633
  36        -0.00100363
  37         0.00000221
  38        -0.00214984
  39        -0.00001069
  40         0.00000002
  41        -0.00002290
  42         0.00000000
  43        -0.00000000
  44         0.00000000
  45        -0.00000000
  46         0.00000000
  47        -0.00000000
  48         0.00000000
  49        -0.00000000
  50         0.00000000
  51        -0.00000000
  52         0.00000000
  53        -0.00000000
  54         0.00000000
  55        -0.00000000
  56         0.00000000
  57        -0.00000000
  58         0.00000000
  59         0.00000000
  60         0.00000000
  61         0.00000000
Sym=     5a  
Ene=     0.0000
Spin= Alpha
Occup=    0.00063
   1        -0.00000000
   2         0.00000000
   3        -0.00000000
   4         0.00000002
   5        -0.00000009
   6         0.00000037
   7        -0.00000121
   8         0.00000225
   9        -0.00000272
  10         0.00000226
  11        -0.00000122
  12         0.00000050
  13        -0.00000028
  14         0.00000014
  15         0.07191805
  16        -0.00008577
  17        -0.03357410
  18         0.52794735
  19        -0.00062962
  20        -0.24646600
  21         0.40988881
  22        -0.00048882
  23        -0.19135176
  24         0.01497830
  25        -0.00001786
  26        -0.00699244
  27        -0.03861330
  28         0.00004605
  29         0.01802616
  30        -0.09592449
  31         0.00011440
  32         0.04478122
  33        -0.04638630
  34         0.00005532
  35         0.02165490
  36        -0.00214984
  37         0.00000256
  38         0.00100363
  39        -0.00002290
  40         0.00000003
  41         0.00001069
  42         0.00000000
  43         0.00000000
  44        -0.00000000
  45        -0.00000000
  46         0.00000000
  47        -0.00000000
  48        -0.00000000
  49         0.00000000
  50         0.00000000
  51        -0.00000000
  52         0.00000000
  53         0.00000000
  54        -0.00000000
  55        -0.00000000
  56         0.00000000
  57        -0.00000000
  58        -0.00000000
  59        -0.00000000
  60         0.00000000
  61         0.00000000
Sym=     6a  
Ene=     0.0000
Spin= Alpha
Occup=    0.00125
   1         0.00008440
   2         0.00068895
   3         0.00351378
   4         0.01688507
   5         0.06793923
   6         0.33896956
   7         0.74120502
   8        -0.18582374
   9        -0.79486317
  10        -0.18395948
  11         0.07878822
  12         0.19344477
  13         0.07096497
  14        -0.00021826
  15         0.00000000
  16        -0.00000001
  17        -0.00000000
  18         0.00000002
  19        -0.00000005
  20        -0.00000001
  21         0.00000001
  22        -0.00000004
  23        -0.00000001
  24        -0.00000000
  25        -0.00000000
  26        -0.00000000
  27        -0.00000001
  28         0.00000001
  29         0.00000000
  30        -0.00000003
  31         0.00000004
  32         0.00000001
  33        -0.00000002
  34         0.00000002
  35         0.00000001
  36        -0.00000000
  37         0.00000000
  38         0.00000000
  39         0.00000000
  40        -0.00000000
  41        -0.00000000
  42         0.00000000
  43         0.00000000
  44        -0.00000000
  45         0.00000000
  46        -0.00000000
  47        -0.00000000
  48        -0.00000000
  49        -0.00000000
  50        -0.00000000
  51        -0.00000000
  52         0.00000000
  53         0.00000000
  54         0.00000000
  55         0.00000000
  56         0.00000000
  57         0.00000000
  58        -0.00000000
  59         0.00000000
  60         0.00000000
  61         0.00000000
Sym=     7a  
Ene=     0.0000
Spin= Alpha
Occup=    0.06422
   1         0.00000000
   2        -0.00000000
   3         0.00000000
   4        -0.00000001
   5         0.00000002
   6        -0.00000011
   7         0.00000031
   8        -0.00000063
   9         0.00000081
  10        -0.00000067
  11         0.00000037
  12        -0.00000017
  13         0.00000010
  14        -0.00000004
  15         0.00001946
  16        -0.00005990
  17         0.00114552
  18         0.00012346
  19        -0.00037992
  20         0.00726570
  21         0.00035179
  22        -0.00108259
  23         0.02070374
  24         0.00085073
  25        -0.00261800
  26         0.05006716
  27         0.00380433
  28        -0.01170722
  29         0.22389141
  30         0.00915821
  31        -0.02818296
  32         0.53897716
  33         0.00508695
  34        -0.01565428
  35         0.29937582
  36         0.00009998
  37        -0.00030766
  38         0.00588373
  39         0.00003475
  40        -0.00010692
  41         0.00204481
  42         0.00000000
  43        -0.00000000
  44         0.00000000
  45         0.00000000
  46         0.00000000
  47        -0.00000000
  48         0.00000001
  49        -0.00000001
  50        -0.00000000
  51        -0.00000000
  52         0.00000000
  53        -0.00000001
  54         0.00000001
  55         0.00000000
  56         0.00000000
  57        -0.00000000
  58         0.00000000
  59        -0.00000000
  60        -0.00000000
  61        -0.00000000
Sym=     8a  
Ene=     0.0000
Spin= Alpha
Occup=    0.06422
   1         0.00000000
   2        -0.00000000
   3         0.00000000
   4        -0.00000003
   5         0.00000010
   6        -0.00000051
   7         0.00000150
   8        -0.00000296
   9         0.00000380
  10        -0.00000310
  11         0.00000164
  12        -0.00000079
  13         0.00000051
  14        -0.00000019
  15         0.00023620
  16         0.00112134
  17         0.00005462
  18         0.00149815
  19         0.00711236
  20         0.00034645
  21         0.00426901
  22         0.02026674
  23         0.00098721
  24         0.01032360
  25         0.04901044
  26         0.00238732
  27         0.04616529
  28         0.21916587
  29         0.01067569
  30         0.11113441
  31         0.52760137
  32         0.02569975
  33         0.06172980
  34         0.29305714
  35         0.01427497
  36         0.00121319
  37         0.00575950
  38         0.00028055
  39         0.00042163
  40         0.00200169
  41         0.00009750
  42        -0.00000000
  43         0.00000000
  44         0.00000000
  45        -0.00000000
  46        -0.00000000
  47         0.00000000
  48        -0.00000000
  49        -0.00000000
  50         0.00000001
  51         0.00000000
  52        -0.00000001
  53         0.00000000
  54         0.00000000
  55        -0.00000001
  56        -0.00000000
  57         0.00000000
  58        -0.00000000
  59        -0.00000000
  60         0.00000000
  61         0.00000000
Sym=     9a  
Ene=     0.0000
Spin= Alpha
Occup=    0.06422
   1        -0.00000000
   2         0.00000000
   3        -0.00000000
   4         0.00000002
   5        -0.00000008
   6         0.00000043
   7        -0.00000126
   8         0.00000249
   9        -0.00000315
  10         0.00000253
  11        -0.00000135
  12         0.00000061
  13        -0.00000037
  14         0.00000017
  15         0.00112250
  16        -0.00023492
  17        -0.00003136
  18         0.00711971
  19        -0.00149002
  20        -0.00019889
  21         0.02028774
  22        -0.00424581
  23        -0.00056674
  24         0.04906116
  25        -0.01026753
  26        -0.00137053
  27         0.21939277
  28        -0.04591454
  29        -0.00612875
  30         0.52814752
  31        -0.11053079
  32        -0.01475382
  33         0.29336047
  34        -0.06139452
  35        -0.00819504
  36         0.00576551
  37        -0.00120660
  38        -0.00016106
  39         0.00200372
  40        -0.00041935
  41        -0.00005597
  42         0.00000000
  43         0.00000000
  44        -0.00000000
  45        -0.00000000
  46         0.00000000
  47        -0.00000000
  48        -0.00000000
  49         0.00000000
  50         0.00000000
  51        -0.00000001
  52         0.00000000
  53         0.00000000
  54        -0.00000000
  55        -0.00000000
  56         0.00000001
  57        -0.00000000
  58        -0.00000000
  59         0.00000000
  60         0.00000000
  61        -0.00000000
Sym=    10a  
Ene=     0.0275
Spin= Alpha
Occup=    0.00000
   1        -0.00000000
   2        -0.00000000
   3        -0.00000000
   4         0.00000000
   5        -0.00000000
   6         0.00000000
   7        -0.00000000
   8         0.00000000
   9        -0.00000001
  10         0.00000001
  11        -0.00000002
  12         0.00000004
  13        -0.00000012
  14         0.00000012
  15         0.00001249
  16         0.00000010
  17        -0.00013583
  18         0.00002959
  19         0.00000023
  20        -0.00032189
  21         0.00056474
  22         0.00000446
  23        -0.00614385
  24        -0.00063536
  25        -0.00000502
  26         0.00691212
  27         0.00242684
  28         0.00001916
  29        -0.02640183
  30        -0.01105870
  31        -0.00008730
  32         0.12030894
  33         0.01777528
  34         0.00014032
  35        -0.19337941
  36        -0.06103969
  37        -0.00048186
  38         0.66405793
  39         0.12402356
  40         0.00097907
  41        -1.34926689
  42         0.00000000
  43        -0.00000000
  44         0.00000000
  45         0.00000000
  46        -0.00000000
  47        -0.00000000
  48         0.00000000
  49        -0.00000000
  50        -0.00000000
  51         0.00000000
  52        -0.00000000
  53        -0.00000000
  54        -0.00000000
  55         0.00000000
  56         0.00000000
  57         0.00000000
  58        -0.00000000
  59         0.00000000
  60         0.00000000
  61        -0.00000000
Sym=    11a  
Ene=     0.0275
Spin= Alpha
Occup=    0.00000
   1         0.00000000
   2        -0.00000000
   3         0.00000000
   4        -0.00000000
   5         0.00000000
   6        -0.00000000
   7         0.00000000
   8        -0.00000000
   9         0.00000001
  10        -0.00000002
  11         0.00000002
  12        -0.00000005
  13         0.00000017
  14        -0.00000018
  15        -0.00013583
  16         0.00000064
  17        -0.00001248
  18        -0.00032188
  19         0.00000153
  20        -0.00002959
  21        -0.00614378
  22         0.00002913
  23        -0.00056471
  24         0.00691205
  25        -0.00003277
  26         0.00063533
  27        -0.02640155
  28         0.00012517
  29        -0.00242672
  30         0.12030767
  31        -0.00057038
  32         0.01105817
  33        -0.19337737
  34         0.00091680
  35        -0.01777443
  36         0.66405091
  37        -0.00314825
  38         0.06103676
  39        -1.34925263
  40         0.00639677
  41        -0.12401760
  42         0.00000000
  43         0.00000000
  44         0.00000000
  45        -0.00000000
  46         0.00000000
  47        -0.00000000
  48        -0.00000000
  49        -0.00000000
  50         0.00000000
  51        -0.00000000
  52         0.00000000
  53        -0.00000000
  54        -0.00000000
  55        -0.00000000
  56        -0.00000000
  57         0.00000000
  58         0.00000000
  59         0.00000000
  60        -0.00000000
  61         0.00000000
Sym=    12a  
Ene=     0.0275
Spin= Alpha
Occup=    0.00000
   1        -0.00000000
   2        -0.00000000
   3        -0.00000000
   4         0.00000000
   5        -0.00000000
   6         0.00000000
   7        -0.00000001
   8         0.00000001
   9        -0.00000002
  10         0.00000005
  11        -0.00000006
  12         0.00000013
  13        -0.00000041
  14         0.00000045
  15        -0.00000063
  16        -0.00013640
  17        -0.00000016
  18        -0.00000150
  19        -0.00032325
  20        -0.00000037
  21        -0.00002860
  22        -0.00616973
  23        -0.00000711
  24         0.00003217
  25         0.00694111
  26         0.00000799
  27        -0.00012289
  28        -0.02651292
  29        -0.00003053
  30         0.00055999
  31         0.12081479
  32         0.00013914
  33        -0.00090010
  34        -0.19419246
  35        -0.00022365
  36         0.00309093
  37         0.66685025
  38         0.00076800
  39        -0.00628030
  40        -1.35494001
  41        -0.00156047
  42        -0.00000000
  43         0.00000000
  44         0.00000000
  45        -0.00000000
  46        -0.00000000
  47         0.00000000
  48         0.00000000
  49        -0.00000000
  50         0.00000000
  51         0.00000000
  52         0.00000000
  53        -0.00000000
  54        -0.00000000
  55         0.00000000
  56        -0.00000000
  57        -0.00000000
  58         0.00000000
  59         0.00000000
  60        -0.00000000
  61        -0.00000000
Sym=    13a  
Ene=     0.0389
Spin= Alpha
Occup=    0.00000
   1         0.00000064
   2         0.00000160
   3         0.00003502
   4         0.00000535
   5         0.00071325
   6        -0.00013073
   7         0.01047558
   8        -0.00781901
   9         0.03463674
  10        -0.17791521
  11         0.28138201
  12        -0.65125860
  13         1.84098328
  14        -1.93725790
  15         0.00000000
  16        -0.00000000
  17        -0.00000000
  18         0.00000001
  19        -0.00000001
  20        -0.00000000
  21         0.00000002
  22        -0.00000004
  23        -0.00000001
  24         0.00000003
  25        -0.00000006
  26        -0.00000001
  27         0.00000004
  28        -0.00000007
  29        -0.00000002
  30         0.00000000
  31         0.00000002
  32         0.00000000
  33         0.00000003
  34        -0.00000006
  35        -0.00000001
  36        -0.00000014
  37         0.00000035
  38         0.00000008
  39         0.00000017
  40        -0.00000041
  41        -0.00000010
  42         0.00000000
  43         0.00000000
  44        -0.00000000
  45         0.00000000
  46        -0.00000000
  47        -0.00000000
  48         0.00000000
  49         0.00000000
  50        -0.00000000
  51         0.00000000
  52        -0.00000000
  53         0.00000000
  54        -0.00000000
  55        -0.00000000
  56        -0.00000000
  57         0.00000000
  58         0.00000000
  59         0.00000000
  60         0.00000000
  61         0.00000000
Sym=    14a  
Ene=     0.1352
Spin= Alpha
Occup=    0.00000
   1        -0.00000000
   2         0.00000000
   3        -0.00000000
   4         0.00000000
   5        -0.00000000
   6         0.00000000
   7        -0.00000001
   8         0.00000002
   9        -0.00000003
  10        -0.00000001
  11         0.00000011
  12        -0.00000029
  13         0.00000042
  14        -0.00000029
  15        -0.00000001
  16        -0.00000579
  17        -0.00000002
  18        -0.00000927
  19        -0.00598594
  20        -0.00002585
  21        -0.00000112
  22        -0.00072224
  23        -0.00000312
  24        -0.00009078
  25        -0.05862162
  26        -0.00025313
  27         0.00026097
  28         0.16851309
  29         0.00072766
  30        -0.00052390
  31        -0.33829044
  32        -0.00146077
  33         0.00248695
  34         1.60587364
  35         0.00693431
  36        -0.00397442
  37        -2.56635970
  38        -0.01108178
  39         0.00157023
  40         1.01393051
  41         0.00437825
  42         0.00000000
  43        -0.00000000
  44         0.00000000
  45         0.00000000
  46        -0.00000000
  47        -0.00000000
  48         0.00000000
  49         0.00000000
  50        -0.00000000
  51         0.00000000
  52         0.00000000
  53        -0.00000000
  54        -0.00000000
  55         0.00000000
  56         0.00000000
  57        -0.00000000
  58        -0.00000000
  59         0.00000000
  60        -0.00000000
  61        -0.00000000
Sym=    15a  
Ene=     0.1352
Spin= Alpha
Occup=    0.00000
   1         0.00000000
   2        -0.00000000
   3         0.00000000
   4        -0.00000000
   5         0.00000000
   6        -0.00000000
   7         0.00000000
   8        -0.00000001
   9         0.00000002
  10        -0.00000000
  11        -0.00000003
  12         0.00000006
  13        -0.00000009
  14         0.00000008
  15        -0.00000559
  16         0.00000002
  17        -0.00000151
  18        -0.00577836
  19         0.00001570
  20        -0.00156286
  21        -0.00069719
  22         0.00000189
  23        -0.00018857
  24        -0.05658875
  25         0.00015373
  26        -0.01530547
  27         0.16266941
  28        -0.00044190
  29         0.04399693
  30        -0.32655926
  31         0.00088712
  32        -0.08832395
  33         1.55018535
  34        -0.00421118
  35         0.41927608
  36        -2.47736376
  37         0.00672992
  38        -0.67004851
  39         0.97876972
  40        -0.00265889
  41         0.26472624
  42         0.00000000
  43        -0.00000000
  44        -0.00000000
  45        -0.00000000
  46        -0.00000000
  47        -0.00000000
  48         0.00000000
  49         0.00000000
  50         0.00000000
  51         0.00000000
  52        -0.00000000
  53        -0.00000000
  54        -0.00000000
  55         0.00000000
  56        -0.00000000
  57         0.00000000
  58         0.00000000
  59         0.00000000
  60        -0.00000000
  61         0.00000000
Sym=    16a  
Ene=     0.1352
Spin= Alpha
Occup=    0.00000
   1        -0.00000000
   2         0.00000000
   3        -0.00000000
   4         0.00000000
   5        -0.00000000
   6         0.00000000
   7        -0.00000000
   8         0.00000001
   9        -0.00000001
  10        -0.00000000
  11         0.00000003
  12        -0.00000007
  13         0.00000011
  14        -0.00000009
  15         0.00000151
  16         0.00000002
  17        -0.00000559
  18         0.00156291
  19         0.00002253
  20        -0.00577832
  21         0.00018857
  22         0.00000272
  23        -0.00069719
  24         0.01530597
  25         0.00022065
  26        -0.05658840
  27        -0.04399837
  28        -0.00063428
  29         0.16266838
  30         0.08832685
  31         0.00127332
  32        -0.32655720
  33        -0.41928986
  34        -0.00604447
  35         1.55017556
  36         0.67007052
  37         0.00965971
  38        -2.47734812
  39        -0.26473493
  40        -0.00381641
  41         0.97876354
  42        -0.00000000
  43        -0.00000000
  44        -0.00000000
  45         0.00000000
  46         0.00000000
  47         0.00000000
  48         0.00000000
  49         0.00000000
  50        -0.00000000
  51        -0.00000000
  52        -0.00000000
  53         0.00000000
  54        -0.00000000
  55        -0.00000000
  56         0.00000000
  57         0.00000000
  58        -0.00000000
  59         0.00000000
  60         0.00000000
  61        -0.00000000
Sym=    17a  
Ene=     0.1841
Spin= Alpha
Occup=    0.00000
   1         0.00000000
   2         0.00000000
   3        -0.00000000
   4         0.00000000
   5        -0.00000000
   6         0.00000000
   7        -0.00000000
   8         0.00000000
   9        -0.00000000
  10         0.00000000
  11        -0.00000000
  12         0.00000000
  13        -0.00000000
  14         0.00000000
  15        -0.00000000
  16        -0.00000000
  17        -0.00000000
  18        -0.00000000
  19         0.00000000
  20        -0.00000000
  21        -0.00000000
  22        -0.00000000
  23        -0.00000000
  24        -0.00000000
  25         0.00000000
  26        -0.00000000
  27        -0.00000000
  28        -0.00000000
  29        -0.00000000
  30         0.00000000
  31         0.00000000
  32         0.00000000
  33        -0.00000000
  34        -0.00000000
  35        -0.00000001
  36         0.00000001
  37         0.00000000
  38         0.00000001
  39        -0.00000000
  40        -0.00000000
  41        -0.00000000
  42        -0.00109658
  43         0.00038482
  44        -0.00868231
  45         0.00193857
  46        -0.00611037
  47         0.00693971
  48        -0.00243536
  49         0.05494618
  50        -0.01226831
  51         0.03866961
  52        -0.02123726
  53         0.00745282
  54        -0.16814904
  55         0.03754408
  56        -0.11833866
  57         0.11228979
  58        -0.03940600
  59         0.88907056
  60        -0.19851041
  61         0.62570333
Sym=    18a  
Ene=     0.1841
Spin= Alpha
Occup=    0.00000
   1        -0.00000000
   2        -0.00000000
   3        -0.00000000
   4        -0.00000000
   5        -0.00000000
   6        -0.00000000
   7        -0.00000000
   8         0.00000000
   9        -0.00000000
  10         0.00000000
  11        -0.00000000
  12         0.00000000
  13        -0.00000000
  14         0.00000000
  15         0.00000000
  16         0.00000000
  17        -0.00000000
  18         0.00000000
  19         0.00000000
  20        -0.00000000
  21         0.00000000
  22         0.00000000
  23        -0.00000000
  24         0.00000000
  25         0.00000000
  26        -0.00000000
  27         0.00000000
  28         0.00000000
  29        -0.00000000
  30        -0.00000000
  31        -0.00000000
  32         0.00000000
  33         0.00000000
  34         0.00000000
  35        -0.00000000
  36        -0.00000000
  37        -0.00000001
  38         0.00000000
  39         0.00000000
  40         0.00000000
  41        -0.00000000
  42        -0.00363062
  43        -0.00424538
  44        -0.00421780
  45        -0.00722031
  46         0.00408661
  47         0.02297644
  48         0.02686696
  49         0.02669246
  50         0.04569388
  51        -0.02586221
  52        -0.07031366
  53        -0.08221961
  54        -0.08168560
  55        -0.13983470
  56         0.07914483
  57         0.37177618
  58         0.43472764
  59         0.43190413
  60         0.73936144
  61        -0.41847004
Sym=    19a  
Ene=     0.1841
Spin= Alpha
Occup=    0.00000
   1        -0.00000000
   2        -0.00000000
   3         0.00000000
   4         0.00000000
   5        -0.00000000
   6         0.00000000
   7        -0.00000000
   8         0.00000000
   9        -0.00000000
  10         0.00000000
  11        -0.00000000
  12         0.00000000
  13        -0.00000000
  14         0.00000000
  15        -0.00000000
  16         0.00000000
  17         0.00000000
  18        -0.00000000
  19         0.00000000
  20         0.00000000
  21        -0.00000000
  22         0.00000000
  23         0.00000000
  24        -0.00000000
  25         0.00000000
  26         0.00000000
  27        -0.00000000
  28         0.00000000
  29         0.00000000
  30         0.00000000
  31        -0.00000000
  32        -0.00000000
  33        -0.00000000
  34         0.00000000
  35         0.00000000
  36         0.00000000
  37        -0.00000000
  38        -0.00000000
  39        -0.00000000
  40         0.00000000
  41         0.00000000
  42         0.00353820
  43        -0.00845338
  44         0.00251542
  45        -0.00117230
  46        -0.00511347
  47        -0.02239160
  48         0.05349742
  49        -0.01591887
  50         0.00741892
  51         0.03236070
  52         0.06852389
  53        -0.16371546
  54         0.04871571
  55        -0.02270376
  56        -0.09903183
  57        -0.36231296
  58         0.86562848
  59        -0.25757926
  60         0.12004377
  61         0.52362048
Sym=    20a  
Ene=     0.1841
Spin= Alpha
Occup=    0.00000
   1        -0.00000000
   2        -0.00000000
   3        -0.00000000
   4        -0.00000000
   5        -0.00000000
   6        -0.00000000
   7        -0.00000000
   8         0.00000000
   9        -0.00000000
  10         0.00000000
  11        -0.00000000
  12         0.00000000
  13        -0.00000000
  14         0.00000000
  15         0.00000000
  16         0.00000000
  17        -0.00000000
  18         0.00000000
  19         0.00000000
  20        -0.00000000
  21         0.00000000
  22         0.00000000
  23        -0.00000000
  24         0.00000000
  25         0.00000000
  26        -0.00000000
  27         0.00000000
  28         0.00000000
  29        -0.00000000
  30         0.00000000
  31        -0.00000000
  32        -0.00000000
  33         0.00000000
  34         0.00000000
  35         0.00000000
  36         0.00000000
  37        -0.00000001
  38        -0.00000000
  39        -0.00000000
  40         0.00000000
  41         0.00000000
  42         0.00306491
  43         0.00530796
  44         0.00114584
  45        -0.00777035
  46        -0.00430910
  47        -0.01939632
  48        -0.03359151
  49        -0.00725148
  50         0.04917484
  51         0.02727026
  52         0.05935759
  53         0.10279842
  54         0.02219133
  55        -0.15048730
  56        -0.08345382
  57        -0.31384709
  58        -0.54353597
  59        -0.11733436
  60         0.79568592
  61         0.44125338
Sym=    21a  
Ene=     0.1841
Spin= Alpha
Occup=    0.00000
   1        -0.00000000
   2        -0.00000000
   3        -0.00000000
   4        -0.00000000
   5        -0.00000000
   6        -0.00000000
   7        -0.00000000
   8         0.00000000
   9        -0.00000000
  10         0.00000000
  11        -0.00000000
  12         0.00000000
  13        -0.00000000
  14         0.00000000
  15        -0.00000000
  16         0.00000000
  17         0.00000000
  18        -0.00000000
  19         0.00000000
  20         0.00000000
  21        -0.00000000
  22         0.00000000
  23         0.00000000
  24        -0.00000000
  25         0.00000000
  26         0.00000000
  27        -0.00000000
  28         0.00000000
  29         0.00000000
  30         0.00000000
  31        -0.00000000
  32        -0.00000000
  33        -0.00000000
  34         0.00000000
  35         0.00000000
  36         0.00000000
  37        -0.00000001
  38        -0.00000000
  39        -0.00000000
  40         0.00000000
  41         0.00000000
  42        -0.00902947
  43         0.00014950
  44         0.00412494
  45        -0.00042913
  46        -0.00436747
  47         0.05714320
  48        -0.00094614
  49        -0.02610476
  50         0.00271578
  51         0.02763962
  52        -0.17487247
  53         0.00289543
  54         0.07988709
  55        -0.00831095
  56        -0.08458414
  57         0.92461999
  58        -0.01530927
  59        -0.42239468
  60         0.04394329
  61         0.44722986
Sym=    22a  
Ene=     0.2566
Spin= Alpha
Occup=    0.00000
   1         0.00000079
   2         0.00002274
   3        -0.00000478
   4         0.00069224
   5        -0.00060160
   6         0.01162618
   7        -0.00781459
   8         0.11626948
   9        -0.28726518
  10         0.46549839
  11        -1.78319448
  12         4.46807559
  13        -4.43947309
  14         1.40324818
  15        -0.00000000
  16        -0.00000000
  17         0.00000000
  18         0.00000000
  19        -0.00000000
  20        -0.00000000
  21        -0.00000000
  22        -0.00000000
  23         0.00000000
  24         0.00000000
  25        -0.00000001
  26        -0.00000000
  27        -0.00000000
  28         0.00000002
  29         0.00000000
  30         0.00000001
  31        -0.00000007
  32        -0.00000001
  33        -0.00000003
  34         0.00000024
  35         0.00000004
  36         0.00000002
  37        -0.00000020
  38        -0.00000003
  39        -0.00000001
  40         0.00000006
  41         0.00000001
  42         0.00000000
  43         0.00000000
  44         0.00000000
  45         0.00000000
  46         0.00000000
  47        -0.00000000
  48        -0.00000000
  49        -0.00000000
  50        -0.00000000
  51        -0.00000000
  52        -0.00000000
  53         0.00000000
  54         0.00000000
  55        -0.00000000
  56         0.00000000
  57        -0.00000000
  58        -0.00000000
  59        -0.00000000
  60        -0.00000000
  61        -0.00000000
Sym=    23a  
Ene=     0.5115
Spin= Alpha
Occup=    0.00000
   1        -0.00000000
   2         0.00000000
   3        -0.00000000
   4         0.00000000
   5        -0.00000000
   6         0.00000001
   7        -0.00000003
   8         0.00000010
   9        -0.00000016
  10         0.00000007
  11         0.00000004
  12         0.00000003
  13        -0.00000001
  14        -0.00000010
  15         0.00000349
  16        -0.00195699
  17         0.00000099
  18         0.00000201
  19        -0.00112357
  20         0.00000057
  21         0.00016040
  22        -0.08984758
  23         0.00004542
  24        -0.00024341
  25         0.13634740
  26        -0.00006892
  27         0.00100875
  28        -0.56505996
  29         0.00028563
  30        -0.00455394
  31         2.55093639
  32        -0.00128946
  33         0.00632963
  34        -3.54560702
  35         0.00179226
  36        -0.00340133
  37         1.90529335
  38        -0.00096310
  39         0.00090339
  40        -0.50604226
  41         0.00025580
  42        -0.00000000
  43        -0.00000000
  44         0.00000000
  45        -0.00000000
  46        -0.00000000
  47         0.00000000
  48         0.00000000
  49        -0.00000000
  50         0.00000000
  51         0.00000000
  52        -0.00000000
  53        -0.00000000
  54         0.00000000
  55        -0.00000000
  56        -0.00000000
  57         0.00000000
  58         0.00000000
  59        -0.00000000
  60         0.00000000
  61         0.00000000
Sym=    24a  
Ene=     0.5115
Spin= Alpha
Occup=    0.00000
   1        -0.00000000
   2         0.00000000
   3        -0.00000000
   4         0.00000000
   5        -0.00000000
   6         0.00000000
   7        -0.00000001
   8         0.00000003
   9        -0.00000004
  10         0.00000001
  11         0.00000003
  12        -0.00000003
  13         0.00000002
  14        -0.00000003
  15         0.00003248
  16        -0.00000093
  17        -0.00195672
  18         0.00001865
  19        -0.00000053
  20        -0.00112341
  21         0.00149104
  22        -0.00004275
  23        -0.08983536
  24        -0.00226271
  25         0.00006487
  26         0.13632883
  27         0.00937727
  28        -0.00026885
  29        -0.56498311
  30        -0.04233325
  31         0.00121372
  32         2.55058928
  33         0.05883999
  34        -0.00168697
  35        -3.54512445
  36        -0.03161869
  37         0.00090652
  38         1.90503391
  39         0.00839786
  40        -0.00024077
  41        -0.50597321
  42         0.00000000
  43        -0.00000000
  44         0.00000000
  45         0.00000000
  46        -0.00000000
  47        -0.00000000
  48         0.00000000
  49        -0.00000000
  50        -0.00000000
  51         0.00000000
  52         0.00000000
  53        -0.00000000
  54         0.00000000
  55         0.00000000
  56        -0.00000000
  57        -0.00000000
  58         0.00000000
  59        -0.00000000
  60        -0.00000000
  61         0.00000000
Sym=    25a  
Ene=     0.5115
Spin= Alpha
Occup=    0.00000
   1         0.00000000
   2        -0.00000000
   3         0.00000000
   4        -0.00000000
   5         0.00000000
   6        -0.00000001
   7         0.00000001
   8        -0.00000005
   9         0.00000008
  10         0.00000000
  11        -0.00000012
  12         0.00000014
  13        -0.00000010
  14         0.00000008
  15        -0.00195672
  16        -0.00000351
  17        -0.00003247
  18        -0.00112341
  19        -0.00000201
  20        -0.00001864
  21        -0.08983522
  22        -0.00016113
  23        -0.00149096
  24         0.13632863
  25         0.00024452
  26         0.00226259
  27        -0.56498227
  28        -0.00101335
  29        -0.00937678
  30         2.55058550
  31         0.00457471
  32         0.04233101
  33        -3.54511921
  34        -0.00635850
  35        -0.05883688
  36         1.90503109
  37         0.00341685
  38         0.03161701
  39        -0.50597246
  40        -0.00090751
  41        -0.00839742
  42         0.00000000
  43         0.00000000
  44         0.00000000
  45        -0.00000000
  46         0.00000000
  47        -0.00000000
  48        -0.00000000
  49        -0.00000000
  50         0.00000000
  51        -0.00000000
  52         0.00000000
  53         0.00000000
  54         0.00000000
  55        -0.00000000
  56         0.00000000
  57        -0.00000000
  58        -0.00000000
  59        -0.00000000
  60         0.00000000
  61        -0.00000000
Sym=    26a  
Ene=     0.6030
Spin= Alpha
Occup=    0.00000
   1        -0.00000000
   2        -0.00000000
   3        -0.00000000
   4        -0.00000000
   5        -0.00000000
   6        -0.00000000
   7        -0.00000000
   8        -0.00000000
   9         0.00000000
  10        -0.00000000
  11         0.00000000
  12        -0.00000000
  13         0.00000000
  14        -0.00000000
  15        -0.00000000
  16         0.00000000
  17        -0.00000000
  18        -0.00000000
  19         0.00000000
  20         0.00000000
  21         0.00000000
  22         0.00000000
  23        -0.00000000
  24        -0.00000000
  25         0.00000000
  26         0.00000000
  27         0.00000000
  28         0.00000000
  29        -0.00000000
  30        -0.00000001
  31         0.00000000
  32         0.00000000
  33         0.00000001
  34        -0.00000000
  35        -0.00000000
  36        -0.00000000
  37         0.00000000
  38         0.00000000
  39         0.00000000
  40        -0.00000000
  41        -0.00000000
  42         0.00047454
  43        -0.00071093
  44        -0.00635275
  45        -0.00006034
  46         0.04824039
  47        -0.00155792
  48         0.00233402
  49         0.02085641
  50         0.00019809
  51        -0.15837567
  52         0.01359666
  53        -0.02037000
  54        -0.18202279
  55        -0.00172878
  56         1.38221214
  57        -0.00708206
  58         0.01061008
  59         0.09480985
  60         0.00090047
  61        -0.71995007
Sym=    27a  
Ene=     0.6030
Spin= Alpha
Occup=    0.00000
   1         0.00000000
   2         0.00000000
   3         0.00000000
   4         0.00000000
   5         0.00000000
   6         0.00000000
   7         0.00000000
   8         0.00000000
   9        -0.00000000
  10         0.00000000
  11        -0.00000000
  12         0.00000000
  13        -0.00000000
  14         0.00000000
  15         0.00000000
  16        -0.00000000
  17        -0.00000000
  18         0.00000000
  19         0.00000000
  20        -0.00000000
  21         0.00000000
  22        -0.00000000
  23         0.00000000
  24         0.00000000
  25         0.00000000
  26        -0.00000000
  27         0.00000000
  28        -0.00000000
  29         0.00000000
  30         0.00000000
  31         0.00000001
  32        -0.00000001
  33        -0.00000000
  34        -0.00000001
  35         0.00000001
  36         0.00000000
  37         0.00000000
  38        -0.00000000
  39        -0.00000000
  40        -0.00000000
  41         0.00000000
  42         0.01407880
  43        -0.00846564
  44         0.03375009
  45         0.03068343
  46         0.00421966
  47        -0.04622143
  48         0.02779314
  49        -0.11080327
  50        -0.10073528
  51        -0.01385335
  52         0.40339417
  53        -0.24256263
  54         0.96702747
  55         0.87915986
  56         0.12090409
  57        -0.21011511
  58         0.12634311
  59        -0.50369366
  60        -0.45792624
  61        -0.06297507
Sym=    28a  
Ene=     0.6030
Spin= Alpha
Occup=    0.00000
   1        -0.00000000
   2        -0.00000000
   3        -0.00000000
   4        -0.00000000
   5        -0.00000000
   6        -0.00000000
   7        -0.00000000
   8        -0.00000000
   9         0.00000000
  10        -0.00000000
  11         0.00000000
  12        -0.00000000
  13         0.00000000
  14        -0.00000000
  15        -0.00000000
  16        -0.00000000
  17         0.00000000
  18        -0.00000000
  19        -0.00000000
  20        -0.00000000
  21        -0.00000000
  22         0.00000000
  23         0.00000000
  24        -0.00000000
  25        -0.00000000
  26        -0.00000000
  27        -0.00000000
  28         0.00000000
  29         0.00000000
  30        -0.00000000
  31        -0.00000001
  32        -0.00000001
  33         0.00000000
  34         0.00000001
  35         0.00000001
  36        -0.00000000
  37        -0.00000000
  38        -0.00000000
  39         0.00000000
  40         0.00000000
  41         0.00000000
  42        -0.00454349
  43         0.00195179
  44         0.03341958
  45        -0.03474582
  46         0.00443101
  47         0.01491650
  48        -0.00640783
  49        -0.10971819
  50         0.11407231
  51        -0.01454722
  52        -0.13018266
  53         0.05592385
  54         0.95755752
  55        -0.99555777
  56         0.12695982
  57         0.06780798
  58        -0.02912894
  59        -0.49876107
  60         0.51855418
  61        -0.06612931
Sym=    29a  
Ene=     0.6030
Spin= Alpha
Occup=    0.00000
   1        -0.00000000
   2         0.00000000
   3         0.00000000
   4         0.00000000
   5         0.00000000
   6         0.00000000
   7         0.00000000
   8         0.00000000
   9        -0.00000000
  10         0.00000000
  11        -0.00000000
  12         0.00000000
  13        -0.00000000
  14         0.00000000
  15        -0.00000000
  16         0.00000000
  17        -0.00000000
  18        -0.00000000
  19         0.00000000
  20        -0.00000000
  21        -0.00000000
  22        -0.00000000
  23        -0.00000000
  24        -0.00000000
  25         0.00000000
  26        -0.00000000
  27        -0.00000000
  28        -0.00000000
  29        -0.00000000
  30        -0.00000000
  31         0.00000000
  32         0.00000000
  33         0.00000000
  34        -0.00000000
  35        -0.00000000
  36        -0.00000000
  37         0.00000000
  38         0.00000000
  39         0.00000000
  40        -0.00000000
  41        -0.00000000
  42         0.04630720
  43         0.00502271
  44        -0.00666935
  45        -0.01235055
  46        -0.00127523
  47        -0.15202891
  48        -0.01648981
  49         0.02189580
  50         0.04054750
  51         0.00418664
  52         1.32682123
  53         0.14391361
  54        -0.19109404
  55        -0.35387538
  56        -0.03653857
  57        -0.69109872
  58        -0.07495999
  59         0.09953477
  60         0.18432236
  61         0.01903177
Sym=    30a  
Ene=     0.6030
Spin= Alpha
Occup=    0.00000
   1         0.00000000
   2         0.00000000
   3         0.00000000
   4         0.00000000
   5         0.00000000
   6         0.00000000
   7         0.00000000
   8         0.00000000
   9        -0.00000000
  10         0.00000000
  11        -0.00000000
  12         0.00000000
  13        -0.00000000
  14         0.00000000
  15        -0.00000000
  16        -0.00000000
  17         0.00000000
  18        -0.00000000
  19         0.00000000
  20         0.00000000
  21        -0.00000000
  22        -0.00000000
  23         0.00000000
  24        -0.00000000
  25         0.00000000
  26         0.00000000
  27         0.00000000
  28        -0.00000000
  29         0.00000000
  30        -0.00000000
  31         0.00000000
  32         0.00000000
  33         0.00000000
  34        -0.00000000
  35        -0.00000000
  36        -0.00000000
  37         0.00000000
  38         0.00000000
  39         0.00000000
  40        -0.00000000
  41        -0.00000000
  42        -0.00218839
  43         0.04761320
  44         0.00523951
  45         0.00818180
  46         0.00142344
  47         0.00718459
  48        -0.15631659
  49        -0.01720159
  50        -0.02686128
  51        -0.00467321
  52        -0.06270297
  53         1.36424166
  54         0.15012564
  55         0.23442989
  56         0.04078514
  57         0.03265997
  58        -0.71058982
  59        -0.07819564
  60        -0.12210703
  61        -0.02124367
Sym=    31a  
Ene=     1.1022
Spin= Alpha
Occup=    0.00000
   1        -0.00000795
   2         0.00000549
   3        -0.00049117
   4         0.00076795
   5        -0.01064386
   6         0.01617901
   7        -0.15736920
   8         0.25861997
   9        -0.95746429
  10         3.86514232
  11        -6.95323329
  12         6.03750971
  13        -2.72730462
  14         0.67513063
  15         0.00000000
  16        -0.00000000
  17        -0.00000000
  18         0.00000000
  19        -0.00000000
  20        -0.00000000
  21         0.00000003
  22        -0.00000004
  23        -0.00000001
  24        -0.00000001
  25         0.00000000
  26         0.00000000
  27         0.00000027
  28        -0.00000039
  29        -0.00000011
  30        -0.00000037
  31         0.00000049
  32         0.00000014
  33         0.00000030
  34        -0.00000043
  35        -0.00000012
  36        -0.00000013
  37         0.00000018
  38         0.00000005
  39         0.00000003
  40        -0.00000005
  41        -0.00000001
  42        -0.00000000
  43         0.00000000
  44         0.00000000
  45        -0.00000000
  46         0.00000000
  47         0.00000000
  48        -0.00000000
  49         0.00000000
  50         0.00000000
  51         0.00000000
  52        -0.00000000
  53         0.00000000
  54         0.00000000
  55        -0.00000000
  56         0.00000000
  57         0.00000000
  58        -0.00000000
  59         0.00000000
  60         0.00000000
  61         0.00000000
Sym=    32a  
Ene=     1.6734
Spin= Alpha
Occup=    0.00000
   1        -0.00000000
   2         0.00000000
   3        -0.00000000
   4         0.00000000
   5        -0.00000001
   6         0.00000004
   7        -0.00000016
   8         0.00000046
   9        -0.00000096
  10         0.00000152
  11        -0.00000173
  12         0.00000128
  13        -0.00000051
  14         0.00000003
  15         0.00000401
  16         0.00123923
  17         0.00000112
  18        -0.00021683
  19        -0.06698979
  20        -0.00006081
  21         0.00019006
  22         0.05872017
  23         0.00005331
  24        -0.00308206
  25        -0.95220961
  26        -0.00086441
  27         0.01035985
  28         3.20069446
  29         0.00290556
  30        -0.01157616
  31        -3.57647789
  32        -0.00324669
  33         0.00694372
  34         2.14527523
  35         0.00194746
  36        -0.00308041
  37        -0.95169738
  38        -0.00086394
  39         0.00078471
  40         0.24243660
  41         0.00022008
  42         0.00000000
  43        -0.00000000
  44        -0.00000000
  45         0.00000000
  46         0.00000000
  47        -0.00000001
  48         0.00000000
  49         0.00000000
  50        -0.00000002
  51        -0.00000000
  52         0.00000001
  53        -0.00000000
  54        -0.00000000
  55         0.00000001
  56         0.00000000
  57        -0.00000000
  58         0.00000000
  59         0.00000000
  60        -0.00000000
  61        -0.00000000
Sym=    33a  
Ene=     1.6734
Spin= Alpha
Occup=    0.00000
   1        -0.00000000
   2         0.00000000
   3        -0.00000000
   4         0.00000000
   5        -0.00000000
   6         0.00000000
   7        -0.00000001
   8         0.00000003
   9        -0.00000007
  10         0.00000011
  11        -0.00000011
  12         0.00000008
  13        -0.00000003
  14         0.00000000
  15         0.00037216
  16        -0.00000228
  17         0.00118204
  18        -0.02011804
  19         0.00012312
  20        -0.06389782
  21         0.01763455
  22        -0.00010792
  23         0.05600990
  24        -0.28596293
  25         0.00175010
  26        -0.90825973
  27         0.96121680
  28        -0.00588267
  29         3.05296398
  30        -1.07407020
  31         0.00657334
  32        -3.41140274
  33         0.64425846
  34        -0.00394288
  35         2.04625832
  36        -0.28580908
  37         0.00174916
  38        -0.90777109
  39         0.07280740
  40        -0.00044558
  41         0.23124687
  42        -0.00000000
  43         0.00000000
  44        -0.00000000
  45         0.00000000
  46        -0.00000000
  47         0.00000000
  48        -0.00000000
  49         0.00000001
  50        -0.00000000
  51         0.00000000
  52        -0.00000000
  53         0.00000000
  54        -0.00000001
  55         0.00000000
  56        -0.00000000
  57         0.00000000
  58        -0.00000000
  59         0.00000000
  60        -0.00000000
  61         0.00000000
Sym=    34a  
Ene=     1.6734
Spin= Alpha
Occup=    0.00000
   1         0.00000000
   2        -0.00000000
   3         0.00000000
   4        -0.00000000
   5         0.00000001
   6        -0.00000002
   7         0.00000010
   8        -0.00000028
   9         0.00000059
  10        -0.00000100
  11         0.00000118
  12        -0.00000087
  13         0.00000034
  14        -0.00000003
  15         0.00118203
  16        -0.00000349
  17        -0.00037217
  18        -0.06389757
  19         0.00018856
  20         0.02011833
  21         0.05600968
  22        -0.00016528
  23        -0.01763480
  24        -0.90825619
  25         0.00268020
  26         0.28596698
  27         3.05295207
  28        -0.00900905
  29        -0.96123041
  30        -3.41138943
  31         0.01006677
  32         1.07408540
  33         2.04625034
  34        -0.00603834
  35        -0.64426758
  36        -0.90776755
  37         0.00267876
  38         0.28581312
  39         0.23124597
  40        -0.00068239
  41        -0.07280843
  42        -0.00000000
  43        -0.00000000
  44         0.00000000
  45         0.00000000
  46        -0.00000000
  47         0.00000000
  48         0.00000000
  49        -0.00000000
  50        -0.00000000
  51         0.00000001
  52        -0.00000000
  53        -0.00000000
  54         0.00000000
  55         0.00000000
  56        -0.00000001
  57         0.00000000
  58         0.00000000
  59        -0.00000000
  60        -0.00000000
  61         0.00000000
Sym=    35a  
Ene=     1.7499
Spin= Alpha
Occup=    0.00000
   1        -0.00000000
   2        -0.00000000
   3        -0.00000000
   4        -0.00000000
   5        -0.00000000
   6         0.00000000
   7        -0.00000000
   8         0.00000000
   9        -0.00000000
  10         0.00000000
  11        -0.00000000
  12         0.00000000
  13        -0.00000000
  14         0.00000000
  15         0.00000000
  16        -0.00000000
  17        -0.00000000
  18         0.00000000
  19        -0.00000000
  20        -0.00000000
  21        -0.00000000
  22        -0.00000000
  23         0.00000000
  24         0.00000001
  25        -0.00000000
  26        -0.00000001
  27        -0.00000003
  28         0.00000000
  29         0.00000002
  30         0.00000004
  31        -0.00000001
  32        -0.00000002
  33        -0.00000002
  34         0.00000000
  35         0.00000001
  36         0.00000001
  37        -0.00000000
  38        -0.00000000
  39        -0.00000000
  40         0.00000000
  41         0.00000000
  42         0.01012662
  43         0.00587941
  44         0.05108246
  45         0.01890634
  46        -0.10172432
  47        -0.12783453
  48        -0.07421946
  49        -0.64484524
  50        -0.23866634
  51         1.28412844
  52         0.09496490
  53         0.05513568
  54         0.47903854
  55         0.17729894
  56        -0.95394518
  57        -0.03294084
  58        -0.01912512
  59        -0.16616594
  60        -0.06150036
  61         0.33089863
Sym=    36a  
Ene=     1.7499
Spin= Alpha
Occup=    0.00000
   1         0.00000000
   2         0.00000000
   3         0.00000000
   4         0.00000000
   5         0.00000000
   6        -0.00000000
   7         0.00000000
   8        -0.00000000
   9         0.00000000
  10        -0.00000000
  11         0.00000000
  12        -0.00000000
  13         0.00000000
  14        -0.00000000
  15        -0.00000000
  16        -0.00000000
  17         0.00000000
  18         0.00000000
  19        -0.00000000
  20         0.00000000
  21        -0.00000000
  22         0.00000000
  23        -0.00000000
  24         0.00000000
  25        -0.00000001
  26         0.00000000
  27        -0.00000001
  28         0.00000004
  29        -0.00000001
  30         0.00000001
  31        -0.00000004
  32         0.00000001
  33        -0.00000001
  34         0.00000002
  35        -0.00000001
  36         0.00000000
  37        -0.00000001
  38         0.00000000
  39        -0.00000000
  40         0.00000000
  41        -0.00000000
  42        -0.05216742
  43        -0.02673695
  44        -0.03973169
  45        -0.08174745
  46        -0.04188394
  47         0.65854132
  48         0.33751691
  49         0.50155745
  50         1.03194817
  51         0.52872661
  52        -0.48921299
  53        -0.25073241
  54        -0.37259381
  55        -0.76660710
  56        -0.39277706
  57         0.16969519
  58         0.08697252
  59         0.12924305
  60         0.26591595
  61         0.13624409
Sym=    37a  
Ene=     1.7499
Spin= Alpha
Occup=    0.00000
   1         0.00000000
   2         0.00000000
   3         0.00000000
   4         0.00000000
   5         0.00000000
   6        -0.00000000
   7         0.00000000
   8        -0.00000000
   9         0.00000000
  10        -0.00000000
  11         0.00000000
  12        -0.00000000
  13         0.00000000
  14        -0.00000000
  15         0.00000000
  16        -0.00000000
  17         0.00000000
  18        -0.00000000
  19        -0.00000000
  20        -0.00000000
  21         0.00000000
  22         0.00000000
  23         0.00000000
  24        -0.00000000
  25        -0.00000001
  26        -0.00000001
  27         0.00000001
  28         0.00000002
  29         0.00000002
  30        -0.00000001
  31        -0.00000002
  32        -0.00000003
  33         0.00000001
  34         0.00000001
  35         0.00000001
  36        -0.00000000
  37        -0.00000001
  38        -0.00000001
  39         0.00000000
  40         0.00000000
  41         0.00000000
  42        -0.06424943
  43         0.01456109
  44         0.08637074
  45        -0.02293276
  46         0.03355576
  47         0.81105997
  48        -0.18381352
  49        -1.09031086
  50         0.28949430
  51        -0.42359493
  52        -0.60251508
  53         0.13655022
  54         0.80996320
  55        -0.21505769
  56         0.31467751
  57         0.20899672
  58        -0.04736570
  59        -0.28095505
  60         0.07459789
  61        -0.10915340
Sym=    38a  
Ene=     1.7499
Spin= Alpha
Occup=    0.00000
   1        -0.00000000
   2         0.00000000
   3         0.00000000
   4         0.00000000
   5         0.00000000
   6        -0.00000000
   7         0.00000000
   8        -0.00000000
   9         0.00000000
  10        -0.00000000
  11         0.00000000
  12        -0.00000000
  13         0.00000000
  14        -0.00000000
  15        -0.00000000
  16         0.00000000
  17         0.00000000
  18         0.00000000
  19        -0.00000000
  20         0.00000000
  21        -0.00000000
  22         0.00000000
  23        -0.00000000
  24         0.00000000
  25        -0.00000000
  26         0.00000001
  27        -0.00000000
  28         0.00000000
  29        -0.00000002
  30         0.00000000
  31        -0.00000000
  32         0.00000003
  33        -0.00000000
  34         0.00000000
  35        -0.00000001
  36         0.00000000
  37        -0.00000000
  38         0.00000001
  39        -0.00000000
  40         0.00000000
  41        -0.00000000
  42        -0.03717132
  43         0.10197503
  44        -0.03588452
  45         0.01453401
  46        -0.01312519
  47         0.46923638
  48        -1.28729332
  49         0.45299232
  50        -0.18347169
  51         0.16568734
  52        -0.34858334
  53         0.95629628
  54        -0.33651605
  55         0.13629628
  56        -0.12308476
  57         0.12091444
  58        -0.33171417
  59         0.11672862
  60        -0.04727761
  61         0.04269488
Sym=    39a  
Ene=     1.7499
Spin= Alpha
Occup=    0.00000
   1        -0.00000000
   2        -0.00000000
   3        -0.00000000
   4        -0.00000000
   5        -0.00000000
   6         0.00000000
   7        -0.00000000
   8         0.00000000
   9        -0.00000000
  10         0.00000000
  11        -0.00000000
  12         0.00000000
  13        -0.00000000
  14         0.00000000
  15         0.00000000
  16         0.00000000
  17        -0.00000000
  18         0.00000000
  19         0.00000000
  20         0.00000000
  21        -0.00000000
  22        -0.00000000
  23        -0.00000000
  24         0.00000001
  25         0.00000000
  26         0.00000000
  27        -0.00000001
  28        -0.00000001
  29        -0.00000001
  30         0.00000002
  31         0.00000001
  32         0.00000001
  33        -0.00000001
  34        -0.00000001
  35        -0.00000000
  36         0.00000000
  37         0.00000000
  38         0.00000000
  39        -0.00000000
  40        -0.00000000
  41        -0.00000000
  42        -0.07154115
  43        -0.04573245
  44        -0.02271984
  45         0.07532978
  46        -0.00717355
  47         0.90310778
  48         0.57730873
  49         0.28680654
  50        -0.95093407
  51         0.09055618
  52        -0.67089497
  53        -0.42886745
  54        -0.21306102
  55         0.70642386
  56        -0.06727180
  57         0.23271592
  58         0.14876290
  59         0.07390529
  60        -0.24503996
  61         0.02333483
Sym=    40a  
Ene=     4.3119
Spin= Alpha
Occup=    0.00000
   1        -0.00000127
   2         0.00028276
   3        -0.00072819
   4         0.00946298
   5        -0.02208760
   6         0.16768292
   7        -0.33836997
   8         2.15590983
   9        -6.16945153
  10         8.44493722
  11        -6.24047691
  12         3.16694161
  13        -1.40476054
  14         0.32654987
  15         0.00000000
  16        -0.00000001
  17        -0.00000000
  18        -0.00000003
  19         0.00000005
  20         0.00000001
  21         0.00000025
  22        -0.00000044
  23        -0.00000012
  24        -0.00000094
  25         0.00000170
  26         0.00000045
  27         0.00000098
  28        -0.00000175
  29        -0.00000046
  30        -0.00000072
  31         0.00000132
  32         0.00000035
  33         0.00000035
  34        -0.00000062
  35        -0.00000016
  36        -0.00000016
  37         0.00000029
  38         0.00000008
  39         0.00000004
  40        -0.00000007
  41        -0.00000002
  42         0.00000000
  43        -0.00000000
  44        -0.00000000
  45         0.00000000
  46        -0.00000000
  47        -0.00000000
  48         0.00000000
  49         0.00000000
  50        -0.00000000
  51         0.00000000
  52         0.00000000
  53        -0.00000000
  54        -0.00000000
  55         0.00000000
  56        -0.00000000
  57        -0.00000000
  58         0.00000000
  59        -0.00000000
  60        -0.00000000
  61        -0.00000000
Sym=    41a  
Ene=     5.1856
Spin= Alpha
Occup=    0.00000
   1         0.00000000
   2         0.00000000
   3         0.00000000
   4         0.00000000
   5        -0.00000000
   6         0.00000000
   7        -0.00000000
   8         0.00000000
   9        -0.00000000
  10         0.00000000
  11        -0.00000000
  12         0.00000000
  13        -0.00000000
  14         0.00000000
  15        -0.00000000
  16         0.00000000
  17        -0.00000000
  18         0.00000000
  19        -0.00000000
  20         0.00000000
  21        -0.00000000
  22         0.00000000
  23        -0.00000000
  24         0.00000000
  25        -0.00000000
  26         0.00000000
  27        -0.00000000
  28         0.00000000
  29        -0.00000000
  30         0.00000000
  31        -0.00000000
  32         0.00000000
  33        -0.00000000
  34         0.00000000
  35        -0.00000000
  36         0.00000000
  37        -0.00000000
  38         0.00000000
  39        -0.00000000
  40         0.00000000
  41        -0.00000000
  42         0.02191088
  43         0.00572393
  44        -1.32594560
  45        -0.17988942
  46        -0.36048848
  47        -0.01795965
  48        -0.00469172
  49         1.08683549
  50         0.14744964
  51         0.29548096
  52         0.00855802
  53         0.00223567
  54        -0.51789201
  55        -0.07026177
  56        -0.14080073
  57        -0.00280831
  58        -0.00073364
  59         0.16994624
  60         0.02305640
  61         0.04620375
Sym=    42a  
Ene=     5.1856
Spin= Alpha
Occup=    0.00000
   1        -0.00000000
   2        -0.00000000
   3         0.00000000
   4        -0.00000000
   5         0.00000000
   6        -0.00000000
   7         0.00000000
   8        -0.00000000
   9         0.00000000
  10        -0.00000000
  11         0.00000000
  12        -0.00000000
  13         0.00000000
  14        -0.00000000
  15        -0.00000000
  16        -0.00000000
  17        -0.00000000
  18         0.00000000
  19         0.00000000
  20         0.00000000
  21        -0.00000000
  22        -0.00000000
  23        -0.00000000
  24         0.00000000
  25         0.00000000
  26         0.00000000
  27        -0.00000000
  28        -0.00000000
  29        -0.00000000
  30         0.00000000
  31         0.00000000
  32         0.00000000
  33        -0.00000000
  34        -0.00000000
  35        -0.00000000
  36         0.00000000
  37         0.00000000
  38         0.00000000
  39        -0.00000000
  40        -0.00000000
  41        -0.00000000
  42         0.58022852
  43         0.00971185
  44        -0.21130734
  45         1.22427823
  46         0.20171585
  47        -0.47559489
  48        -0.00796050
  49         0.17320191
  50        -1.00350198
  51        -0.16534007
  52         0.22662748
  53         0.00379329
  54        -0.08253309
  55         0.47818245
  56         0.07878681
  57        -0.07436780
  58        -0.00124477
  59         0.02708323
  60        -0.15691555
  61        -0.02585389
Sym=    43a  
Ene=     5.1856
Spin= Alpha
Occup=    0.00000
   1        -0.00000000
   2        -0.00000000
   3         0.00000000
   4        -0.00000000
   5         0.00000000
   6        -0.00000000
   7         0.00000000
   8        -0.00000000
   9         0.00000000
  10        -0.00000000
  11         0.00000000
  12        -0.00000000
  13         0.00000000
  14        -0.00000000
  15        -0.00000000
  16         0.00000000
  17         0.00000000
  18         0.00000000
  19        -0.00000000
  20        -0.00000000
  21        -0.00000000
  22         0.00000000
  23         0.00000000
  24         0.00000000
  25        -0.00000000
  26        -0.00000000
  27        -0.00000000
  28         0.00000000
  29         0.00000000
  30         0.00000000
  31        -0.00000000
  32        -0.00000000
  33        -0.00000000
  34         0.00000000
  35         0.00000000
  36         0.00000000
  37        -0.00000000
  38        -0.00000000
  39        -0.00000000
  40         0.00000000
  41         0.00000000
  42        -0.12268467
  43        -0.25058545
  44         0.30190346
  45         0.32370149
  46        -1.28342657
  47         0.10056073
  48         0.20539693
  49        -0.24746068
  50        -0.26532783
  51         1.05198400
  52        -0.04791857
  53        -0.09787445
  54         0.11791840
  55         0.12643235
  56        -0.50128480
  57         0.01572448
  58         0.03211750
  59        -0.03869492
  60        -0.04148877
  61         0.16449658
Sym=    44a  
Ene=     5.1856
Spin= Alpha
Occup=    0.00000
   1        -0.00000000
   2        -0.00000000
   3         0.00000000
   4        -0.00000000
   5         0.00000000
   6        -0.00000000
   7         0.00000000
   8        -0.00000000
   9         0.00000000
  10        -0.00000000
  11         0.00000000
  12        -0.00000000
  13         0.00000000
  14        -0.00000000
  15         0.00000000
  16         0.00000000
  17         0.00000000
  18        -0.00000000
  19        -0.00000000
  20        -0.00000000
  21         0.00000000
  22         0.00000000
  23         0.00000000
  24        -0.00000000
  25        -0.00000000
  26        -0.00000000
  27         0.00000000
  28         0.00000000
  29         0.00000000
  30        -0.00000000
  31         0.00000000
  32        -0.00000000
  33         0.00000000
  34         0.00000000
  35         0.00000000
  36        -0.00000000
  37        -0.00000000
  38        -0.00000000
  39         0.00000000
  40         0.00000000
  41         0.00000000
  42         1.24644832
  43        -0.16282322
  44         0.14346661
  45        -0.53367172
  46        -0.18821197
  47        -1.02167410
  48         0.13346102
  49        -0.11759503
  50         0.43743376
  51         0.15427137
  52         0.48684171
  53        -0.06359601
  54         0.05603564
  55        -0.20844318
  56        -0.07351242
  57        -0.15975708
  58         0.02086903
  59        -0.01838809
  60         0.06840062
  61         0.02412310
Sym=    45a  
Ene=     5.1856
Spin= Alpha
Occup=    0.00000
   1        -0.00000000
   2        -0.00000000
   3        -0.00000000
   4        -0.00000000
   5         0.00000000
   6        -0.00000000
   7         0.00000000
   8        -0.00000000
   9         0.00000000
  10        -0.00000000
  11         0.00000000
  12        -0.00000000
  13         0.00000000
  14        -0.00000000
  15         0.00000000
  16         0.00000000
  17        -0.00000000
  18         0.00000000
  19        -0.00000000
  20         0.00000000
  21        -0.00000000
  22         0.00000000
  23        -0.00000000
  24         0.00000000
  25        -0.00000000
  26         0.00000000
  27        -0.00000000
  28         0.00000000
  29        -0.00000000
  30        -0.00000000
  31        -0.00000000
  32         0.00000000
  33        -0.00000000
  34         0.00000000
  35        -0.00000000
  36         0.00000000
  37        -0.00000000
  38         0.00000000
  39        -0.00000000
  40         0.00000000
  41        -0.00000000
  42         0.12299009
  43         1.35333853
  44         0.08028598
  45        -0.01229522
  46        -0.26020757
  47        -0.10081107
  48        -1.10928861
  49        -0.06580787
  50         0.01007800
  51         0.21328388
  52         0.04803786
  53         0.52859123
  54         0.03135835
  55        -0.00480231
  56        -0.10163269
  57        -0.01576362
  58        -0.17345719
  59        -0.01029024
  60         0.00157588
  61         0.03335076
Sym=    46a  
Ene=     5.6386
Spin= Alpha
Occup=    0.00000
   1         0.00000000
   2         0.00000000
   3         0.00000000
   4         0.00000000
   5         0.00000001
   6         0.00000001
   7         0.00000022
   8         0.00000030
   9        -0.00000230
  10         0.00000360
  11        -0.00000252
  12         0.00000113
  13        -0.00000057
  14         0.00000020
  15         0.00013799
  16         0.02519378
  17         0.00004022
  18        -0.00042014
  19        -0.07670603
  20        -0.00012246
  21         0.00811324
  22         1.48126403
  23         0.00236472
  24        -0.01871317
  25        -3.41653511
  26        -0.00545422
  27         0.01706288
  28         3.11523543
  29         0.00497322
  30        -0.01053904
  31        -1.92415181
  32        -0.00307175
  33         0.00605331
  34         1.10517607
  35         0.00176432
  36        -0.00253617
  37        -0.46303813
  38        -0.00073920
  39         0.00066131
  40         0.12073874
  41         0.00019275
  42         0.00000000
  43         0.00000000
  44        -0.00000000
  45         0.00000000
  46         0.00000000
  47        -0.00000000
  48        -0.00000000
  49         0.00000000
  50        -0.00000000
  51        -0.00000000
  52         0.00000000
  53        -0.00000000
  54        -0.00000000
  55         0.00000000
  56         0.00000000
  57        -0.00000000
  58        -0.00000000
  59         0.00000000
  60        -0.00000000
  61        -0.00000000
Sym=    47a  
Ene=     5.6386
Spin= Alpha
Occup=    0.00000
   1        -0.00000000
   2        -0.00000000
   3        -0.00000000
   4        -0.00000000
   5        -0.00000000
   6        -0.00000000
   7        -0.00000002
   8        -0.00000003
   9         0.00000024
  10        -0.00000036
  11         0.00000024
  12        -0.00000011
  13         0.00000006
  14        -0.00000002
  15         0.01434231
  16        -0.00011162
  17         0.02071311
  18        -0.04366721
  19         0.00033985
  20        -0.06306403
  21         0.84325365
  22        -0.00656286
  23         1.21782396
  24        -1.94496416
  25         0.01513723
  26        -2.80891041
  27         1.77344030
  28        -0.01380230
  29         2.56119625
  30        -1.09538056
  31         0.00852511
  32        -1.58194475
  33         0.62915430
  34        -0.00489657
  35         0.90862243
  36        -0.26359817
  37         0.00205153
  38        -0.38068756
  39         0.06873406
  40        -0.00053494
  41         0.09926549
  42        -0.00000000
  43         0.00000000
  44        -0.00000000
  45         0.00000000
  46        -0.00000000
  47         0.00000000
  48        -0.00000000
  49         0.00000000
  50        -0.00000000
  51         0.00000000
  52        -0.00000000
  53         0.00000000
  54        -0.00000000
  55         0.00000000
  56        -0.00000000
  57         0.00000000
  58        -0.00000000
  59         0.00000000
  60        -0.00000000
  61         0.00000000
Sym=    48a  
Ene=     5.6386
Spin= Alpha
Occup=    0.00000
   1        -0.00000000
   2        -0.00000000
   3        -0.00000000
   4        -0.00000000
   5        -0.00000001
   6        -0.00000001
   7        -0.00000012
   8        -0.00000022
   9         0.00000144
  10        -0.00000221
  11         0.00000153
  12        -0.00000068
  13         0.00000035
  14        -0.00000012
  15         0.02071295
  16        -0.00009055
  17        -0.01434269
  18        -0.06306354
  19         0.00027570
  20         0.04366836
  21         1.21781462
  22        -0.00532404
  23        -0.84327587
  24        -2.80888886
  25         0.01227989
  26         1.94501542
  27         2.56117660
  28        -0.01119694
  29        -1.77348704
  30        -1.58193261
  31         0.00691589
  32         1.09540942
  33         0.90861546
  34        -0.00397228
  35        -0.62917088
  36        -0.38068464
  37         0.00166428
  38         0.26360512
  39         0.09926473
  40        -0.00043397
  41        -0.06873587
  42        -0.00000000
  43        -0.00000000
  44         0.00000000
  45         0.00000000
  46        -0.00000000
  47         0.00000000
  48         0.00000000
  49        -0.00000000
  50        -0.00000000
  51         0.00000000
  52        -0.00000000
  53        -0.00000000
  54         0.00000000
  55         0.00000000
  56        -0.00000000
  57         0.00000000
  58         0.00000000
  59        -0.00000000
  60        -0.00000000
  61         0.00000000
Sym=    49a  
Ene=    16.7840
Spin= Alpha
Occup=    0.00000
   1         0.00010324
   2        -0.00045162
   3         0.00729197
   4        -0.02293077
   5         0.17350265
   6        -0.48593675
   7         3.20969942
   8        -7.03884966
   9         7.57442514
  10        -5.09039733
  11         2.94852199
  12        -1.56213737
  13         0.59891353
  14        -0.15146535
  15         0.00000002
  16        -0.00000003
  17        -0.00000001
  18        -0.00000032
  19         0.00000062
  20         0.00000015
  21         0.00000091
  22        -0.00000175
  23        -0.00000042
  24        -0.00000073
  25         0.00000140
  26         0.00000034
  27         0.00000052
  28        -0.00000100
  29        -0.00000024
  30        -0.00000022
  31         0.00000043
  32         0.00000010
  33         0.00000020
  34        -0.00000039
  35        -0.00000009
  36        -0.00000007
  37         0.00000013
  38         0.00000003
  39         0.00000002
  40        -0.00000004
  41        -0.00000001
  42        -0.00000000
  43        -0.00000000
  44         0.00000000
  45        -0.00000000
  46         0.00000000
  47         0.00000000
  48         0.00000000
  49         0.00000000
  50         0.00000000
  51         0.00000000
  52        -0.00000000
  53        -0.00000000
  54        -0.00000000
  55        -0.00000000
  56        -0.00000000
  57        -0.00000000
  58         0.00000000
  59        -0.00000000
  60        -0.00000000
  61        -0.00000000
Sym=    50a  
Ene=    21.8830
Spin= Alpha
Occup=    0.00000
   1        -0.00000000
   2         0.00000000
   3        -0.00000000
   4         0.00000001
   5        -0.00000008
   6         0.00000019
   7        -0.00000156
   8         0.00000372
   9        -0.00000437
  10         0.00000323
  11        -0.00000186
  12         0.00000091
  13        -0.00000039
  14         0.00000014
  15         0.00001384
  16        -0.06301256
  17         0.00000519
  18        -0.00036986
  19         1.68340722
  20        -0.00013865
  21         0.00060587
  22        -2.75758399
  23         0.00022713
  24        -0.00046376
  25         2.11078664
  26        -0.00017385
  27         0.00029942
  28        -1.36279820
  29         0.00011225
  30        -0.00018887
  31         0.85961183
  32        -0.00007080
  33         0.00009642
  34        -0.43882463
  35         0.00003614
  36        -0.00004390
  37         0.19980189
  38        -0.00001646
  39         0.00001153
  40        -0.05247351
  41         0.00000432
  42         0.00000000
  43        -0.00000000
  44        -0.00000000
  45         0.00000000
  46         0.00000000
  47        -0.00000000
  48        -0.00000000
  49         0.00000000
  50        -0.00000000
  51        -0.00000000
  52         0.00000000
  53         0.00000000
  54        -0.00000000
  55         0.00000000
  56         0.00000000
  57        -0.00000000
  58        -0.00000000
  59         0.00000000
  60        -0.00000000
  61        -0.00000000
Sym=    51a  
Ene=    21.8830
Spin= Alpha
Occup=    0.00000
   1        -0.00000000
   2         0.00000000
   3        -0.00000000
   4         0.00000000
   5        -0.00000001
   6         0.00000002
   7        -0.00000020
   8         0.00000048
   9        -0.00000057
  10         0.00000043
  11        -0.00000025
  12         0.00000012
  13        -0.00000005
  14         0.00000002
  15        -0.01310127
  16        -0.00000796
  17        -0.06163554
  18         0.35000601
  19         0.00021252
  20         1.64661958
  21        -0.57334368
  22        -0.00034814
  23        -2.69732205
  24         0.43886466
  25         0.00026648
  26         2.06465922
  27        -0.28334648
  28        -0.00017205
  29        -1.33301671
  30         0.17872638
  31         0.00010852
  32         0.84082657
  33        -0.09123832
  34        -0.00005540
  35        -0.42923491
  36         0.04154186
  37         0.00002522
  38         0.19543561
  39        -0.01091005
  40        -0.00000662
  41        -0.05132685
  42        -0.00000000
  43         0.00000000
  44        -0.00000000
  45         0.00000000
  46        -0.00000000
  47         0.00000000
  48        -0.00000000
  49         0.00000000
  50        -0.00000000
  51         0.00000000
  52        -0.00000000
  53         0.00000000
  54        -0.00000000
  55         0.00000000
  56        -0.00000000
  57         0.00000000
  58        -0.00000000
  59         0.00000000
  60        -0.00000000
  61         0.00000000
Sym=    52a  
Ene=    21.8830
Spin= Alpha
Occup=    0.00000
   1         0.00000000
   2        -0.00000000
   3         0.00000000
   4        -0.00000001
   5         0.00000004
   6        -0.00000010
   7         0.00000086
   8        -0.00000208
   9         0.00000245
  10        -0.00000181
  11         0.00000104
  12        -0.00000051
  13         0.00000022
  14        -0.00000008
  15        -0.06163554
  16        -0.00001246
  17         0.01310127
  18         1.64661955
  19         0.00033295
  20        -0.35000605
  21        -2.69732200
  22        -0.00054541
  23         0.57334374
  24         2.06465918
  25         0.00041748
  26        -0.43886470
  27        -1.33301669
  28        -0.00026954
  29         0.28334651
  30         0.84082656
  31         0.00017002
  32        -0.17872640
  33        -0.42923490
  34        -0.00008679
  35         0.09123833
  36         0.19543561
  37         0.00003952
  38        -0.04154186
  39        -0.05132685
  40        -0.00001038
  41         0.01091005
  42        -0.00000000
  43        -0.00000000
  44         0.00000000
  45         0.00000000
  46        -0.00000000
  47         0.00000000
  48         0.00000000
  49        -0.00000000
  50        -0.00000000
  51         0.00000000
  52        -0.00000000
  53        -0.00000000
  54         0.00000000
  55         0.00000000
  56        -0.00000000
  57         0.00000000
  58         0.00000000
  59        -0.00000000
  60        -0.00000000
  61         0.00000000
