[MOLDEN FORMAT]
[N_ATOMS]
                    1
[ATOMS] (AU)
BE          1      4           0.00000000      0.00000000      0.00000000
[5D]
[CHARGE] (MULLIKEN)
   0.0000000000000000     
[GTO] (AU)
   1
   s   1
  0.226285990E+05  0.100000000E+01
   s   1
  0.337231810E+04  0.100000000E+01
   s   1
  0.760350400E+03  0.100000000E+01
   s   1
  0.211740480E+03  0.100000000E+01
   s   1
  0.672234680E+02  0.100000000E+01
   s   1
  0.233721770E+02  0.100000000E+01
   s   1
  0.872137300E+01  0.100000000E+01
   s   1
  0.346809100E+01  0.100000000E+01
   s   1
  0.145214400E+01  0.100000000E+01
   s   1
  0.608615000E+00  0.100000000E+01
   s   1
  0.257686000E+00  0.100000000E+01
   s   1
  0.104176000E+00  0.100000000E+01
   s   1
  0.424270000E-01  0.100000000E+01
   s   1
  0.148490000E-01  0.100000000E+01
   p   1
  0.337101840E+02  0.100000000E+01
   p   1
  0.805764950E+01  0.100000000E+01
   p   1
  0.283647140E+01  0.100000000E+01
   p   1
  0.109996570E+01  0.100000000E+01
   p   1
  0.443396400E+00  0.100000000E+01
   p   1
  0.182226400E+00  0.100000000E+01
   p   1
  0.757241000E-01  0.100000000E+01
   p   1
  0.316854000E-01  0.100000000E+01
   p   1
  0.110899000E-01  0.100000000E+01
   d   1
  0.140000000E+01  0.100000000E+01
   d   1
  0.490000000E+00  0.100000000E+01
   d   1
  0.171500000E+00  0.100000000E+01
   d   1
  0.600250000E-01  0.100000000E+01
 
[MO]
Sym=     1a  
Ene=    -4.7332
Spin= Alpha
Occup=    2.00000
   1         0.00008444
   2         0.00046015
   3         0.00228539
   4         0.00964813
   5         0.03494470
   6         0.10610999
   7         0.24582404
   8         0.38624288
   9         0.31055261
  10         0.06415934
  11        -0.00226505
  12        -0.00052175
  13        -0.00087575
  14         0.00012422
  15        -0.00000000
  16        -0.00000000
  17         0.00000000
  18         0.00000000
  19        -0.00000000
  20        -0.00000000
  21         0.00000000
  22        -0.00000000
  23         0.00000000
  24        -0.00000000
  25        -0.00000000
  26         0.00000000
  27         0.00000000
  28        -0.00000000
  29         0.00000000
  30        -0.00000000
  31        -0.00000000
  32        -0.00000000
  33        -0.00000000
  34        -0.00000000
  35         0.00000000
  36         0.00000000
  37        -0.00000000
  38        -0.00000000
  39        -0.00000000
  40        -0.00000000
  41        -0.00000000
  42        -0.00000000
  43         0.00000000
  44         0.00000000
  45        -0.00000000
  46        -0.00000000
  47         0.00000000
  48        -0.00000000
  49        -0.00000000
  50         0.00000000
  51         0.00000000
  52        -0.00000000
  53         0.00000000
  54         0.00000000
  55         0.00000000
  56        -0.00000000
  57         0.00000000
  58        -0.00000000
  59        -0.00000000
  60        -0.00000000
  61         0.00000000
Sym=     2a  
Ene=    -0.3093
Spin= Alpha
Occup=    2.00000
   1        -0.00001587
   2        -0.00008657
   3        -0.00043022
   4        -0.00182508
   5        -0.00668275
   6        -0.02095120
   7        -0.05200309
   8        -0.09849177
   9        -0.13558007
  10        -0.06429876
  11         0.31254150
  12         0.62704686
  13         0.21102315
  14        -0.00410467
  15        -0.00000000
  16        -0.00000000
  17         0.00000000
  18         0.00000000
  19        -0.00000000
  20        -0.00000000
  21         0.00000000
  22        -0.00000000
  23         0.00000000
  24        -0.00000000
  25        -0.00000000
  26         0.00000000
  27         0.00000000
  28        -0.00000000
  29        -0.00000000
  30         0.00000000
  31        -0.00000000
  32         0.00000000
  33        -0.00000000
  34        -0.00000000
  35        -0.00000000
  36         0.00000000
  37        -0.00000000
  38         0.00000000
  39        -0.00000000
  40        -0.00000000
  41        -0.00000000
  42        -0.00000000
  43         0.00000000
  44         0.00000000
  45        -0.00000000
  46        -0.00000000
  47        -0.00000000
  48        -0.00000000
  49        -0.00000000
  50         0.00000000
  51         0.00000000
  52         0.00000000
  53         0.00000000
  54         0.00000000
  55         0.00000000
  56        -0.00000000
  57         0.00000000
  58        -0.00000000
  59        -0.00000000
  60        -0.00000000
  61         0.00000000
Sym=     3a  
Ene=     3.0243
Spin= Alpha
Occup=    0.00000
   1         0.00000000
   2         0.00000000
   3         0.00000000
   4         0.00000000
   5         0.00000000
   6         0.00000000
   7         0.00000000
   8         0.00000000
   9         0.00000000
  10        -0.00000000
  11         0.00000000
  12         0.00000000
  13         0.00000000
  14        -0.00000000
  15         0.00000000
  16         0.00000000
  17         0.00005414
  18        -0.00000000
  19         0.00000000
  20        -0.00048381
  21        -0.00000000
  22         0.00000000
  23         0.00233991
  24         0.00000000
  25         0.00000000
  26        -0.00853733
  27        -0.00000000
  28         0.00000000
  29         0.02698798
  30        -0.00000000
  31         0.00000000
  32        -0.07842331
  33         0.00000000
  34         0.00000000
  35         0.21105341
  36        -0.00000000
  37        -0.00000000
  38        -0.48537986
  39         0.00000000
  40         0.00000000
  41         1.25839548
  42        -0.00000000
  43         0.00000000
  44         0.00000000
  45        -0.00000000
  46        -0.00000000
  47         0.00000000
  48        -0.00000000
  49        -0.00000000
  50         0.00000000
  51         0.00000000
  52        -0.00000000
  53         0.00000000
  54         0.00000000
  55         0.00000000
  56        -0.00000000
  57         0.00000000
  58        -0.00000000
  59        -0.00000000
  60        -0.00000000
  61         0.00000000
Sym=     4a  
Ene=     3.0243
Spin= Alpha
Occup=    0.00000
   1         0.00000000
   2         0.00000000
   3         0.00000000
   4         0.00000000
   5         0.00000000
   6         0.00000000
   7         0.00000000
   8         0.00000000
   9         0.00000000
  10         0.00000000
  11         0.00000000
  12         0.00000000
  13         0.00000000
  14        -0.00000000
  15         0.00000000
  16         0.00005414
  17         0.00000000
  18         0.00000000
  19        -0.00048381
  20        -0.00000000
  21        -0.00000000
  22         0.00233991
  23         0.00000000
  24         0.00000000
  25        -0.00853733
  26         0.00000000
  27        -0.00000000
  28         0.02698798
  29        -0.00000000
  30         0.00000000
  31        -0.07842331
  32        -0.00000000
  33        -0.00000000
  34         0.21105341
  35         0.00000000
  36         0.00000000
  37        -0.48537986
  38         0.00000000
  39        -0.00000000
  40         1.25839548
  41        -0.00000000
  42        -0.00000000
  43         0.00000000
  44         0.00000000
  45        -0.00000000
  46        -0.00000000
  47         0.00000000
  48        -0.00000000
  49        -0.00000000
  50         0.00000000
  51         0.00000000
  52        -0.00000000
  53         0.00000000
  54         0.00000000
  55         0.00000000
  56        -0.00000000
  57         0.00000000
  58        -0.00000000
  59        -0.00000000
  60        -0.00000000
  61         0.00000000
Sym=     5a  
Ene=     3.0243
Spin= Alpha
Occup=    0.00000
   1         0.00000000
   2         0.00000000
   3         0.00000000
   4         0.00000000
   5         0.00000000
   6         0.00000000
   7         0.00000000
   8         0.00000000
   9         0.00000000
  10         0.00000000
  11        -0.00000000
  12        -0.00000000
  13        -0.00000000
  14         0.00000000
  15         0.00005414
  16        -0.00000000
  17         0.00000000
  18        -0.00048381
  19        -0.00000000
  20        -0.00000000
  21         0.00233991
  22        -0.00000000
  23         0.00000000
  24        -0.00853733
  25        -0.00000000
  26        -0.00000000
  27         0.02698798
  28        -0.00000000
  29         0.00000000
  30        -0.07842331
  31        -0.00000000
  32        -0.00000000
  33         0.21105341
  34        -0.00000000
  35         0.00000000
  36        -0.48537986
  37        -0.00000000
  38        -0.00000000
  39         1.25839548
  40        -0.00000000
  41        -0.00000000
  42        -0.00000000
  43         0.00000000
  44         0.00000000
  45         0.00000000
  46        -0.00000000
  47         0.00000000
  48        -0.00000000
  49        -0.00000000
  50        -0.00000000
  51         0.00000000
  52        -0.00000000
  53         0.00000000
  54         0.00000000
  55         0.00000000
  56        -0.00000000
  57         0.00000000
  58        -0.00000000
  59        -0.00000000
  60        -0.00000000
  61         0.00000000
Sym=     6a  
Ene=     3.0385
Spin= Alpha
Occup=    0.00000
   1        -0.00000018
   2         0.00000215
   3        -0.00001532
   4         0.00008342
   5        -0.00035992
   6         0.00154140
   7        -0.00460803
   8         0.01980802
   9        -0.03777079
  10         0.14574997
  11        -0.27915361
  12         0.66754113
  13        -1.83032772
  14         1.93397397
  15         0.00000000
  16         0.00000000
  17        -0.00000000
  18        -0.00000000
  19         0.00000000
  20         0.00000000
  21        -0.00000000
  22        -0.00000000
  23        -0.00000000
  24         0.00000000
  25         0.00000000
  26        -0.00000000
  27        -0.00000000
  28        -0.00000000
  29         0.00000000
  30         0.00000000
  31         0.00000000
  32        -0.00000000
  33         0.00000000
  34        -0.00000000
  35         0.00000000
  36        -0.00000000
  37         0.00000000
  38        -0.00000000
  39         0.00000000
  40        -0.00000000
  41         0.00000000
  42         0.00000000
  43        -0.00000000
  44         0.00000000
  45         0.00000000
  46         0.00000000
  47        -0.00000000
  48         0.00000000
  49        -0.00000000
  50        -0.00000000
  51         0.00000000
  52        -0.00000000
  53        -0.00000000
  54         0.00000000
  55         0.00000000
  56        -0.00000000
  57         0.00000000
  58         0.00000000
  59        -0.00000000
  60        -0.00000000
  61         0.00000000
Sym=     7a  
Ene=     3.0954
Spin= Alpha
Occup=    0.00000
   1        -0.00000000
   2        -0.00000000
   3        -0.00000000
   4        -0.00000000
   5        -0.00000000
   6        -0.00000000
   7        -0.00000000
   8        -0.00000000
   9         0.00000000
  10         0.00000000
  11        -0.00000000
  12        -0.00000000
  13        -0.00000000
  14         0.00000000
  15        -0.00000000
  16        -0.00000000
  17        -0.00017520
  18         0.00000000
  19        -0.00000000
  20         0.00156768
  21         0.00000000
  22        -0.00000000
  23        -0.00760347
  24        -0.00000000
  25        -0.00000000
  26         0.02792513
  27         0.00000000
  28        -0.00000000
  29        -0.08961760
  30         0.00000000
  31        -0.00000000
  32         0.26936035
  33        -0.00000000
  34        -0.00000000
  35        -0.77967746
  36         0.00000000
  37        -0.00000000
  38         2.05621769
  39        -0.00000000
  40        -0.00000000
  41        -1.01234483
  42         0.00000000
  43        -0.00000000
  44        -0.00000000
  45         0.00000000
  46         0.00000000
  47        -0.00000000
  48         0.00000000
  49         0.00000000
  50        -0.00000000
  51        -0.00000000
  52         0.00000000
  53        -0.00000000
  54        -0.00000000
  55         0.00000000
  56         0.00000000
  57        -0.00000000
  58         0.00000000
  59         0.00000000
  60         0.00000000
  61        -0.00000000
Sym=     8a  
Ene=     3.0954
Spin= Alpha
Occup=    0.00000
   1         0.00000000
   2         0.00000000
   3         0.00000000
   4         0.00000000
   5         0.00000000
   6         0.00000000
   7         0.00000000
   8         0.00000000
   9         0.00000000
  10         0.00000000
  11         0.00000000
  12         0.00000000
  13         0.00000000
  14        -0.00000000
  15         0.00000000
  16        -0.00017520
  17         0.00000000
  18        -0.00000000
  19         0.00156768
  20        -0.00000000
  21         0.00000000
  22        -0.00760347
  23         0.00000000
  24         0.00000000
  25         0.02792513
  26         0.00000000
  27        -0.00000000
  28        -0.08961760
  29        -0.00000000
  30         0.00000000
  31         0.26936035
  32        -0.00000000
  33        -0.00000000
  34        -0.77967746
  35         0.00000000
  36        -0.00000000
  37         2.05621769
  38         0.00000000
  39         0.00000000
  40        -1.01234483
  41        -0.00000000
  42        -0.00000000
  43         0.00000000
  44         0.00000000
  45        -0.00000000
  46        -0.00000000
  47         0.00000000
  48        -0.00000000
  49        -0.00000000
  50         0.00000000
  51         0.00000000
  52        -0.00000000
  53         0.00000000
  54         0.00000000
  55         0.00000000
  56        -0.00000000
  57         0.00000000
  58        -0.00000000
  59        -0.00000000
  60        -0.00000000
  61         0.00000000
Sym=     9a  
Ene=     3.0954
Spin= Alpha
Occup=    0.00000
   1         0.00000000
   2         0.00000000
   3         0.00000000
   4         0.00000000
   5         0.00000000
   6         0.00000000
   7         0.00000000
   8         0.00000000
   9         0.00000000
  10         0.00000000
  11        -0.00000000
  12        -0.00000000
  13        -0.00000000
  14         0.00000000
  15        -0.00017520
  16        -0.00000000
  17         0.00000000
  18         0.00156768
  19        -0.00000000
  20        -0.00000000
  21        -0.00760347
  22        -0.00000000
  23         0.00000000
  24         0.02792513
  25        -0.00000000
  26        -0.00000000
  27        -0.08961760
  28        -0.00000000
  29         0.00000000
  30         0.26936035
  31        -0.00000000
  32        -0.00000000
  33        -0.77967746
  34        -0.00000000
  35         0.00000000
  36         2.05621769
  37        -0.00000000
  38        -0.00000000
  39        -1.01234483
  40        -0.00000000
  41        -0.00000000
  42        -0.00000000
  43        -0.00000000
  44         0.00000000
  45         0.00000000
  46        -0.00000000
  47         0.00000000
  48        -0.00000000
  49        -0.00000000
  50        -0.00000000
  51         0.00000000
  52        -0.00000000
  53        -0.00000000
  54         0.00000000
  55         0.00000000
  56        -0.00000000
  57         0.00000000
  58        -0.00000000
  59        -0.00000000
  60        -0.00000000
  61         0.00000000
Sym=    10a  
Ene=     3.1944
Spin= Alpha
Occup=    0.00000
   1        -0.00000000
   2         0.00000000
   3        -0.00000000
   4         0.00000000
   5        -0.00000000
   6         0.00000000
   7        -0.00000000
   8         0.00000000
   9        -0.00000000
  10         0.00000000
  11        -0.00000000
  12         0.00000000
  13        -0.00000000
  14         0.00000000
  15         0.00000000
  16         0.00000000
  17        -0.00000000
  18        -0.00000000
  19         0.00000000
  20         0.00000000
  21         0.00000000
  22         0.00000000
  23        -0.00000000
  24         0.00000000
  25         0.00000000
  26         0.00000000
  27        -0.00000000
  28        -0.00000000
  29        -0.00000000
  30        -0.00000000
  31         0.00000000
  32         0.00000000
  33         0.00000000
  34        -0.00000000
  35        -0.00000000
  36        -0.00000000
  37         0.00000000
  38         0.00000000
  39         0.00000000
  40        -0.00000000
  41        -0.00000000
  42        -0.00712052
  43        -0.00794140
  44         0.00621808
  45        -0.00290590
  46        -0.00000004
  47         0.03640731
  48         0.04060448
  49        -0.03179313
  50         0.01485789
  51         0.00000019
  52        -0.15288378
  53        -0.17050880
  54         0.13350765
  55        -0.06239217
  56        -0.00000080
  57         0.64228347
  58         0.71632832
  59        -0.56088198
  60         0.26211715
  61         0.00000338
Sym=    11a  
Ene=     3.1944
Spin= Alpha
Occup=    0.00000
   1         0.00000000
   2        -0.00000000
   3         0.00000000
   4        -0.00000000
   5         0.00000000
   6        -0.00000000
   7         0.00000000
   8        -0.00000000
   9         0.00000000
  10        -0.00000000
  11         0.00000000
  12        -0.00000000
  13         0.00000000
  14        -0.00000000
  15        -0.00000000
  16         0.00000000
  17         0.00000000
  18         0.00000000
  19        -0.00000000
  20        -0.00000000
  21        -0.00000000
  22         0.00000000
  23        -0.00000000
  24         0.00000000
  25        -0.00000000
  26         0.00000000
  27        -0.00000000
  28         0.00000000
  29        -0.00000000
  30         0.00000000
  31        -0.00000000
  32         0.00000000
  33         0.00000000
  34        -0.00000000
  35        -0.00000000
  36         0.00000000
  37         0.00000000
  38         0.00000000
  39        -0.00000000
  40        -0.00000000
  41        -0.00000000
  42         0.00000001
  43         0.00000012
  44         0.00000008
  45        -0.00000001
  46        -0.01268370
  47        -0.00000007
  48        -0.00000060
  49        -0.00000043
  50         0.00000003
  51         0.06485196
  52         0.00000028
  53         0.00000251
  54         0.00000182
  55        -0.00000014
  56        -0.27233027
  57        -0.00000118
  58        -0.00001055
  59        -0.00000766
  60         0.00000059
  61         1.14409279
Sym=    12a  
Ene=     3.1944
Spin= Alpha
Occup=    0.00000
   1         0.00000000
   2        -0.00000000
   3         0.00000000
   4        -0.00000000
   5         0.00000000
   6        -0.00000000
   7         0.00000000
   8        -0.00000000
   9         0.00000000
  10        -0.00000000
  11         0.00000000
  12        -0.00000000
  13         0.00000000
  14        -0.00000000
  15        -0.00000000
  16        -0.00000000
  17         0.00000000
  18         0.00000000
  19        -0.00000000
  20        -0.00000000
  21        -0.00000000
  22         0.00000000
  23         0.00000000
  24        -0.00000000
  25        -0.00000000
  26        -0.00000000
  27         0.00000000
  28         0.00000000
  29         0.00000000
  30         0.00000000
  31        -0.00000000
  32        -0.00000000
  33        -0.00000000
  34         0.00000000
  35         0.00000000
  36         0.00000000
  37        -0.00000000
  38        -0.00000000
  39        -0.00000000
  40         0.00000000
  41         0.00000000
  42         0.00613464
  43        -0.00543268
  44        -0.00402764
  45        -0.00880378
  46        -0.00000007
  47        -0.03136650
  48         0.02777740
  49         0.02059338
  50         0.04501386
  51         0.00000034
  52         0.13171612
  53        -0.11664455
  54        -0.08647698
  55        -0.18902491
  56        -0.00000142
  57        -0.55335555
  58         0.49003804
  59         0.36330038
  60         0.79411680
  61         0.00000598
Sym=    13a  
Ene=     3.1944
Spin= Alpha
Occup=    0.00000
   1         0.00000000
   2        -0.00000000
   3         0.00000000
   4        -0.00000000
   5         0.00000000
   6        -0.00000000
   7         0.00000000
   8        -0.00000000
   9         0.00000000
  10        -0.00000000
  11         0.00000000
  12        -0.00000000
  13         0.00000000
  14        -0.00000000
  15        -0.00000000
  16        -0.00000000
  17         0.00000000
  18         0.00000000
  19        -0.00000000
  20        -0.00000000
  21        -0.00000000
  22        -0.00000000
  23         0.00000000
  24        -0.00000000
  25        -0.00000000
  26        -0.00000000
  27         0.00000000
  28         0.00000000
  29         0.00000000
  30         0.00000000
  31        -0.00000000
  32        -0.00000000
  33        -0.00000000
  34         0.00000000
  35         0.00000000
  36         0.00000000
  37        -0.00000000
  38        -0.00000000
  39        -0.00000000
  40         0.00000000
  41         0.00000000
  42        -0.00845384
  43         0.00365493
  44        -0.00726631
  45        -0.00482193
  46        -0.00000002
  47         0.04322461
  48        -0.01868770
  49         0.03715278
  50         0.02465462
  51         0.00000011
  52        -0.18151141
  53         0.07847453
  54        -0.15601419
  55        -0.10353116
  56        -0.00000045
  57         0.76255167
  58        -0.32968109
  59         0.65543471
  60         0.43494709
  61         0.00000191
Sym=    14a  
Ene=     3.1944
Spin= Alpha
Occup=    0.00000
   1        -0.00000000
   2         0.00000000
   3        -0.00000000
   4         0.00000000
   5        -0.00000000
   6         0.00000000
   7        -0.00000000
   8         0.00000000
   9        -0.00000000
  10         0.00000000
  11        -0.00000000
  12         0.00000000
  13        -0.00000000
  14         0.00000000
  15         0.00000000
  16         0.00000000
  17        -0.00000000
  18        -0.00000000
  19         0.00000000
  20         0.00000000
  21         0.00000000
  22        -0.00000000
  23        -0.00000000
  24         0.00000000
  25         0.00000000
  26         0.00000000
  27        -0.00000000
  28        -0.00000000
  29        -0.00000000
  30        -0.00000000
  31         0.00000000
  32         0.00000000
  33         0.00000000
  34        -0.00000000
  35        -0.00000000
  36        -0.00000000
  37         0.00000000
  38         0.00000000
  39         0.00000000
  40        -0.00000000
  41        -0.00000000
  42        -0.00103601
  43        -0.00741201
  44        -0.00729319
  45         0.00718850
  46        -0.00000012
  47         0.00529712
  48         0.03789773
  49         0.03729017
  50        -0.03675489
  51         0.00000062
  52        -0.02224398
  53        -0.15914246
  54        -0.15659114
  55         0.15434336
  56        -0.00000262
  57         0.09344967
  58         0.66857695
  59         0.65785856
  60        -0.64841533
  61         0.00001100
Sym=    15a  
Ene=     3.2516
Spin= Alpha
Occup=    0.00000
   1         0.00000084
   2        -0.00001026
   3         0.00007364
   4        -0.00039177
   5         0.00179957
   6        -0.00665621
   7         0.02717865
   8        -0.07084769
   9         0.27005462
  10        -0.54895403
  11         1.72569488
  12        -4.32105809
  13         4.39314346
  14        -1.39691812
  15        -0.00000000
  16        -0.00000000
  17         0.00000000
  18         0.00000000
  19        -0.00000000
  20        -0.00000000
  21        -0.00000000
  22         0.00000000
  23         0.00000000
  24        -0.00000000
  25        -0.00000000
  26        -0.00000000
  27         0.00000000
  28         0.00000000
  29         0.00000000
  30         0.00000000
  31        -0.00000000
  32        -0.00000000
  33        -0.00000000
  34         0.00000000
  35         0.00000000
  36         0.00000000
  37        -0.00000000
  38        -0.00000000
  39        -0.00000000
  40         0.00000000
  41         0.00000000
  42         0.00000000
  43        -0.00000000
  44         0.00000000
  45         0.00000000
  46        -0.00000000
  47        -0.00000000
  48         0.00000000
  49        -0.00000000
  50        -0.00000000
  51         0.00000000
  52        -0.00000000
  53        -0.00000000
  54         0.00000000
  55         0.00000000
  56        -0.00000000
  57         0.00000000
  58         0.00000000
  59        -0.00000000
  60        -0.00000000
  61        -0.00000000
Sym=    16a  
Ene=     3.2725
Spin= Alpha
Occup=    0.00000
   1        -0.00000000
   2        -0.00000000
   3        -0.00000000
   4        -0.00000000
   5        -0.00000000
   6        -0.00000000
   7        -0.00000000
   8        -0.00000000
   9        -0.00000000
  10        -0.00000000
  11         0.00000000
  12         0.00000000
  13         0.00000000
  14        -0.00000000
  15         0.00000000
  16         0.00000000
  17         0.00048206
  18        -0.00000000
  19         0.00000000
  20        -0.00432606
  21        -0.00000000
  22         0.00000000
  23         0.02112083
  24         0.00000000
  25         0.00000000
  26        -0.07873550
  27        -0.00000000
  28         0.00000000
  29         0.26110420
  30         0.00000000
  31         0.00000000
  32        -0.83986870
  33         0.00000000
  34         0.00000000
  35         2.70051420
  36        -0.00000000
  37         0.00000000
  38        -2.09522173
  39         0.00000000
  40         0.00000000
  41         0.62439656
  42         0.00000000
  43         0.00000000
  44         0.00000000
  45        -0.00000000
  46         0.00000000
  47        -0.00000000
  48        -0.00000000
  49         0.00000000
  50         0.00000000
  51        -0.00000000
  52         0.00000000
  53         0.00000000
  54        -0.00000000
  55        -0.00000000
  56         0.00000000
  57        -0.00000000
  58        -0.00000000
  59         0.00000000
  60         0.00000000
  61        -0.00000000
Sym=    17a  
Ene=     3.2725
Spin= Alpha
Occup=    0.00000
   1         0.00000000
   2         0.00000000
   3         0.00000000
   4         0.00000000
   5         0.00000000
   6         0.00000000
   7         0.00000000
   8         0.00000000
   9         0.00000000
  10         0.00000000
  11         0.00000000
  12         0.00000000
  13         0.00000000
  14        -0.00000000
  15         0.00000000
  16         0.00048206
  17         0.00000000
  18         0.00000000
  19        -0.00432606
  20        -0.00000000
  21        -0.00000000
  22         0.02112083
  23         0.00000000
  24         0.00000000
  25        -0.07873550
  26         0.00000000
  27        -0.00000000
  28         0.26110420
  29        -0.00000000
  30         0.00000000
  31        -0.83986870
  32        -0.00000000
  33        -0.00000000
  34         2.70051420
  35         0.00000000
  36         0.00000000
  37        -2.09522173
  38         0.00000000
  39         0.00000000
  40         0.62439656
  41        -0.00000000
  42        -0.00000000
  43         0.00000000
  44         0.00000000
  45        -0.00000000
  46        -0.00000000
  47         0.00000000
  48        -0.00000000
  49        -0.00000000
  50         0.00000000
  51         0.00000000
  52        -0.00000000
  53         0.00000000
  54         0.00000000
  55         0.00000000
  56        -0.00000000
  57         0.00000000
  58        -0.00000000
  59        -0.00000000
  60        -0.00000000
  61         0.00000000
Sym=    18a  
Ene=     3.2725
Spin= Alpha
Occup=    0.00000
   1         0.00000000
   2         0.00000000
   3         0.00000000
   4         0.00000000
   5         0.00000000
   6         0.00000000
   7         0.00000000
   8         0.00000000
   9         0.00000000
  10         0.00000000
  11         0.00000000
  12         0.00000000
  13         0.00000000
  14        -0.00000000
  15         0.00048206
  16        -0.00000000
  17         0.00000000
  18        -0.00432606
  19        -0.00000000
  20        -0.00000000
  21         0.02112083
  22        -0.00000000
  23         0.00000000
  24        -0.07873550
  25        -0.00000000
  26         0.00000000
  27         0.26110420
  28        -0.00000000
  29        -0.00000000
  30        -0.83986870
  31        -0.00000000
  32        -0.00000000
  33         2.70051420
  34        -0.00000000
  35         0.00000000
  36        -2.09522173
  37        -0.00000000
  38        -0.00000000
  39         0.62439656
  40        -0.00000000
  41        -0.00000000
  42        -0.00000000
  43         0.00000000
  44         0.00000000
  45        -0.00000000
  46        -0.00000000
  47         0.00000000
  48        -0.00000000
  49        -0.00000000
  50         0.00000000
  51         0.00000000
  52        -0.00000000
  53         0.00000000
  54         0.00000000
  55         0.00000000
  56        -0.00000000
  57         0.00000000
  58        -0.00000000
  59        -0.00000000
  60        -0.00000000
  61         0.00000000
Sym=    19a  
Ene=     3.6948
Spin= Alpha
Occup=    0.00000
   1        -0.00000000
   2         0.00000000
   3         0.00000000
   4        -0.00000000
   5         0.00000000
   6        -0.00000000
   7         0.00000000
   8        -0.00000000
   9         0.00000000
  10        -0.00000000
  11         0.00000000
  12        -0.00000000
  13         0.00000000
  14        -0.00000000
  15         0.00000000
  16         0.00000000
  17        -0.00000000
  18        -0.00000000
  19        -0.00000000
  20         0.00000000
  21         0.00000000
  22        -0.00000000
  23        -0.00000000
  24         0.00000000
  25         0.00000000
  26        -0.00000000
  27         0.00000000
  28        -0.00000000
  29         0.00000000
  30        -0.00000000
  31         0.00000000
  32        -0.00000000
  33        -0.00000000
  34        -0.00000000
  35         0.00000000
  36        -0.00000000
  37        -0.00000000
  38        -0.00000000
  39         0.00000000
  40        -0.00000000
  41         0.00000000
  42        -0.00000036
  43        -0.00000001
  44        -0.00000000
  45        -0.00000017
  46         0.04885023
  47         0.00000204
  48         0.00000004
  49         0.00000002
  50         0.00000096
  51        -0.27392178
  52        -0.00001094
  53        -0.00000022
  54        -0.00000011
  55        -0.00000513
  56         1.46676916
  57         0.00000521
  58         0.00000011
  59         0.00000005
  60         0.00000244
  61        -0.69806943
Sym=    20a  
Ene=     3.6948
Spin= Alpha
Occup=    0.00000
   1         0.00000000
   2         0.00000000
   3        -0.00000000
   4         0.00000000
   5        -0.00000000
   6         0.00000000
   7        -0.00000000
   8         0.00000000
   9        -0.00000000
  10         0.00000000
  11        -0.00000000
  12         0.00000000
  13        -0.00000000
  14         0.00000000
  15         0.00000000
  16         0.00000000
  17        -0.00000000
  18        -0.00000000
  19         0.00000000
  20         0.00000000
  21        -0.00000000
  22         0.00000000
  23        -0.00000000
  24         0.00000000
  25         0.00000000
  26        -0.00000000
  27        -0.00000000
  28         0.00000000
  29         0.00000000
  30        -0.00000000
  31         0.00000000
  32        -0.00000000
  33         0.00000000
  34         0.00000000
  35         0.00000000
  36        -0.00000000
  37         0.00000000
  38        -0.00000000
  39         0.00000000
  40         0.00000000
  41         0.00000000
  42        -0.00026837
  43        -0.02281829
  44         0.04318932
  45         0.00053065
  46        -0.00000000
  47         0.00150484
  48         0.12795080
  49        -0.24217889
  50        -0.00297553
  51         0.00000000
  52        -0.00805798
  53        -0.68513823
  54         1.29679551
  55         0.01593307
  56        -0.00000001
  57         0.00383498
  58         0.32607316
  59        -0.61717503
  60        -0.00758292
  61         0.00000000
Sym=    21a  
Ene=     3.6948
Spin= Alpha
Occup=    0.00000
   1         0.00000000
   2        -0.00000000
   3         0.00000000
   4        -0.00000000
   5         0.00000000
   6        -0.00000000
   7         0.00000000
   8        -0.00000000
   9         0.00000000
  10        -0.00000000
  11         0.00000000
  12        -0.00000000
  13         0.00000000
  14        -0.00000000
  15        -0.00000000
  16        -0.00000000
  17         0.00000000
  18         0.00000000
  19        -0.00000000
  20        -0.00000000
  21         0.00000000
  22        -0.00000000
  23         0.00000000
  24        -0.00000000
  25        -0.00000000
  26         0.00000000
  27         0.00000000
  28        -0.00000000
  29        -0.00000000
  30         0.00000000
  31        -0.00000000
  32         0.00000000
  33        -0.00000000
  34        -0.00000000
  35        -0.00000000
  36         0.00000000
  37        -0.00000000
  38         0.00000000
  39        -0.00000000
  40        -0.00000000
  41        -0.00000000
  42         0.00027302
  43         0.04318546
  44         0.02282483
  45        -0.00055988
  46         0.00000001
  47        -0.00153095
  48        -0.24215728
  49        -0.12798746
  50         0.00313947
  51        -0.00000005
  52         0.00819779
  53         1.29667979
  54         0.68533458
  55        -0.01681092
  56         0.00000025
  57        -0.00390152
  58        -0.61711996
  59        -0.32616660
  60         0.00800071
  61        -0.00000012
Sym=    22a  
Ene=     3.6948
Spin= Alpha
Occup=    0.00000
   1        -0.00000000
   2         0.00000000
   3        -0.00000000
   4         0.00000000
   5        -0.00000000
   6         0.00000000
   7        -0.00000000
   8         0.00000000
   9        -0.00000000
  10         0.00000000
  11        -0.00000000
  12         0.00000000
  13        -0.00000000
  14         0.00000000
  15         0.00000000
  16         0.00000000
  17        -0.00000000
  18        -0.00000000
  19         0.00000000
  20         0.00000000
  21        -0.00000000
  22         0.00000000
  23        -0.00000000
  24         0.00000000
  25        -0.00000000
  26        -0.00000000
  27        -0.00000000
  28         0.00000000
  29         0.00000000
  30        -0.00000000
  31         0.00000000
  32         0.00000000
  33         0.00000000
  34         0.00000000
  35        -0.00000000
  36        -0.00000000
  37         0.00000000
  38        -0.00000000
  39         0.00000000
  40         0.00000000
  41         0.00000000
  42         0.04421693
  43        -0.00001618
  44         0.00001107
  45         0.02076555
  46         0.00000040
  47        -0.24794109
  48         0.00009072
  49        -0.00006207
  50        -0.11644030
  51        -0.00000226
  52         1.32765037
  53        -0.00048580
  54         0.00033237
  55         0.62350294
  56         0.00001209
  57        -0.63185957
  58         0.00023120
  59        -0.00015818
  60        -0.29673950
  61        -0.00000575
Sym=    23a  
Ene=     3.6948
Spin= Alpha
Occup=    0.00000
   1        -0.00000000
   2        -0.00000000
   3        -0.00000000
   4        -0.00000000
   5        -0.00000000
   6         0.00000000
   7         0.00000000
   8         0.00000000
   9        -0.00000000
  10         0.00000000
  11        -0.00000000
  12         0.00000000
  13        -0.00000000
  14        -0.00000000
  15         0.00000000
  16         0.00000000
  17        -0.00000000
  18        -0.00000000
  19         0.00000000
  20         0.00000000
  21        -0.00000000
  22         0.00000000
  23        -0.00000000
  24         0.00000000
  25        -0.00000000
  26        -0.00000000
  27        -0.00000000
  28         0.00000000
  29        -0.00000000
  30         0.00000000
  31        -0.00000000
  32         0.00000000
  33         0.00000000
  34         0.00000000
  35        -0.00000000
  36        -0.00000000
  37         0.00000000
  38         0.00000000
  39         0.00000000
  40         0.00000000
  41         0.00000000
  42        -0.02076203
  43         0.00082839
  44        -0.00023454
  45         0.04421020
  46        -0.00000000
  47         0.11642056
  48        -0.00464508
  49         0.00131513
  50        -0.24790339
  51         0.00000000
  52        -0.62339725
  53         0.02487301
  54        -0.00704213
  55         1.32744845
  56        -0.00000001
  57         0.29668919
  58        -0.01183764
  59         0.00335151
  60        -0.63176347
  61         0.00000000
Sym=    24a  
Ene=     3.6998
Spin= Alpha
Occup=    0.00000
   1         0.00000000
   2         0.00000000
   3         0.00000000
   4         0.00000000
   5         0.00000000
   6         0.00000000
   7         0.00000000
   8         0.00000000
   9         0.00000000
  10        -0.00000000
  11         0.00000000
  12         0.00000000
  13         0.00000000
  14        -0.00000000
  15        -0.00000000
  16        -0.00000000
  17        -0.00131252
  18         0.00000000
  19        -0.00000000
  20         0.01186021
  21         0.00000000
  22        -0.00000000
  23        -0.05879218
  24        -0.00000000
  25         0.00000000
  26         0.22666064
  27         0.00000000
  28        -0.00000000
  29        -0.80632728
  30        -0.00000000
  31        -0.00000000
  32         2.90007643
  33        -0.00000000
  34        -0.00000000
  35        -2.83517965
  36         0.00000000
  37        -0.00000000
  38         1.40373043
  39        -0.00000000
  40        -0.00000000
  41        -0.36341970
  42        -0.00000000
  43         0.00000000
  44         0.00000000
  45        -0.00000000
  46        -0.00000000
  47         0.00000000
  48        -0.00000000
  49        -0.00000000
  50         0.00000000
  51         0.00000000
  52        -0.00000000
  53         0.00000000
  54         0.00000000
  55         0.00000000
  56        -0.00000000
  57         0.00000000
  58        -0.00000000
  59        -0.00000000
  60        -0.00000000
  61         0.00000000
Sym=    25a  
Ene=     3.6998
Spin= Alpha
Occup=    0.00000
   1         0.00000000
   2         0.00000000
   3         0.00000000
   4         0.00000000
   5         0.00000000
   6         0.00000000
   7         0.00000000
   8         0.00000000
   9         0.00000000
  10         0.00000000
  11         0.00000000
  12         0.00000000
  13         0.00000000
  14        -0.00000000
  15        -0.00000000
  16        -0.00131252
  17         0.00000000
  18         0.00000000
  19         0.01186021
  20        -0.00000000
  21        -0.00000000
  22        -0.05879218
  23         0.00000000
  24         0.00000000
  25         0.22666064
  26         0.00000000
  27        -0.00000000
  28        -0.80632728
  29        -0.00000000
  30         0.00000000
  31         2.90007643
  32        -0.00000000
  33        -0.00000000
  34        -2.83517965
  35         0.00000000
  36        -0.00000000
  37         1.40373043
  38         0.00000000
  39         0.00000000
  40        -0.36341970
  41        -0.00000000
  42        -0.00000000
  43         0.00000000
  44         0.00000000
  45        -0.00000000
  46        -0.00000000
  47         0.00000000
  48        -0.00000000
  49        -0.00000000
  50         0.00000000
  51         0.00000000
  52        -0.00000000
  53         0.00000000
  54         0.00000000
  55         0.00000000
  56        -0.00000000
  57         0.00000000
  58        -0.00000000
  59        -0.00000000
  60        -0.00000000
  61         0.00000000
Sym=    26a  
Ene=     3.6998
Spin= Alpha
Occup=    0.00000
   1        -0.00000000
   2        -0.00000000
   3        -0.00000000
   4        -0.00000000
   5        -0.00000000
   6        -0.00000000
   7        -0.00000000
   8        -0.00000000
   9        -0.00000000
  10        -0.00000000
  11        -0.00000000
  12        -0.00000000
  13        -0.00000000
  14         0.00000000
  15        -0.00131252
  16         0.00000000
  17        -0.00000000
  18         0.01186021
  19         0.00000000
  20         0.00000000
  21        -0.05879218
  22         0.00000000
  23        -0.00000000
  24         0.22666064
  25         0.00000000
  26        -0.00000000
  27        -0.80632728
  28         0.00000000
  29         0.00000000
  30         2.90007643
  31         0.00000000
  32         0.00000000
  33        -2.83517965
  34         0.00000000
  35        -0.00000000
  36         1.40373043
  37         0.00000000
  38        -0.00000000
  39        -0.36341970
  40         0.00000000
  41         0.00000000
  42         0.00000000
  43        -0.00000000
  44        -0.00000000
  45         0.00000000
  46         0.00000000
  47        -0.00000000
  48         0.00000000
  49         0.00000000
  50        -0.00000000
  51        -0.00000000
  52         0.00000000
  53        -0.00000000
  54        -0.00000000
  55        -0.00000000
  56         0.00000000
  57        -0.00000000
  58         0.00000000
  59         0.00000000
  60         0.00000000
  61        -0.00000000
Sym=    27a  
Ene=     4.0119
Spin= Alpha
Occup=    0.00000
   1        -0.00000312
   2         0.00003811
   3        -0.00027182
   4         0.00147312
   5        -0.00646783
   6         0.02690308
   7        -0.08812325
   8         0.34616292
   9        -0.82555545
  10         3.09809879
  11        -6.31044160
  12         5.86752828
  13        -2.70973796
  14         0.67296941
  15         0.00000000
  16         0.00000000
  17        -0.00000000
  18        -0.00000000
  19         0.00000000
  20         0.00000000
  21        -0.00000000
  22         0.00000000
  23        -0.00000000
  24         0.00000000
  25         0.00000000
  26        -0.00000000
  27        -0.00000000
  28         0.00000000
  29         0.00000000
  30         0.00000000
  31         0.00000000
  32         0.00000000
  33         0.00000000
  34         0.00000000
  35        -0.00000000
  36        -0.00000000
  37         0.00000000
  38        -0.00000000
  39         0.00000000
  40         0.00000000
  41         0.00000000
  42        -0.00000000
  43        -0.00000000
  44        -0.00000000
  45        -0.00000000
  46        -0.00000000
  47         0.00000000
  48        -0.00000000
  49         0.00000000
  50         0.00000000
  51         0.00000000
  52        -0.00000000
  53         0.00000000
  54         0.00000000
  55        -0.00000000
  56         0.00000000
  57         0.00000000
  58         0.00000000
  59         0.00000000
  60         0.00000000
  61        -0.00000000
Sym=    28a  
Ene=     4.7411
Spin= Alpha
Occup=    0.00000
   1        -0.00000000
   2        -0.00000000
   3        -0.00000000
   4        -0.00000000
   5        -0.00000000
   6        -0.00000000
   7        -0.00000000
   8        -0.00000000
   9        -0.00000000
  10        -0.00000000
  11        -0.00000000
  12        -0.00000000
  13        -0.00000000
  14         0.00000000
  15         0.00000000
  16         0.00000000
  17         0.00365297
  18        -0.00000000
  19         0.00000000
  20        -0.03355060
  21        -0.00000000
  22         0.00000000
  23         0.17223192
  24         0.00000000
  25         0.00000000
  26        -0.71464487
  27        -0.00000000
  28         0.00000000
  29         2.86764427
  30         0.00000000
  31         0.00000000
  32        -3.05078464
  33         0.00000000
  34         0.00000000
  35         1.90124666
  36        -0.00000000
  37         0.00000000
  38        -0.82579696
  39         0.00000000
  40         0.00000000
  41         0.21096474
  42         0.00000000
  43        -0.00000000
  44        -0.00000000
  45         0.00000000
  46         0.00000000
  47        -0.00000000
  48         0.00000000
  49         0.00000000
  50        -0.00000000
  51        -0.00000000
  52         0.00000000
  53        -0.00000000
  54        -0.00000000
  55        -0.00000000
  56         0.00000000
  57        -0.00000000
  58         0.00000000
  59         0.00000000
  60         0.00000000
  61        -0.00000000
Sym=    29a  
Ene=     4.7411
Spin= Alpha
Occup=    0.00000
   1         0.00000000
   2         0.00000000
   3         0.00000000
   4         0.00000000
   5         0.00000000
   6         0.00000000
   7         0.00000000
   8         0.00000000
   9         0.00000000
  10         0.00000000
  11         0.00000000
  12         0.00000000
  13         0.00000000
  14        -0.00000000
  15         0.00000000
  16         0.00365297
  17         0.00000000
  18        -0.00000000
  19        -0.03355060
  20        -0.00000000
  21         0.00000000
  22         0.17223192
  23         0.00000000
  24        -0.00000000
  25        -0.71464487
  26         0.00000000
  27         0.00000000
  28         2.86764427
  29        -0.00000000
  30        -0.00000000
  31        -3.05078464
  32        -0.00000000
  33        -0.00000000
  34         1.90124666
  35         0.00000000
  36         0.00000000
  37        -0.82579696
  38         0.00000000
  39        -0.00000000
  40         0.21096474
  41        -0.00000000
  42        -0.00000000
  43         0.00000000
  44         0.00000000
  45        -0.00000000
  46        -0.00000000
  47         0.00000000
  48        -0.00000000
  49        -0.00000000
  50         0.00000000
  51         0.00000000
  52        -0.00000000
  53         0.00000000
  54         0.00000000
  55         0.00000000
  56        -0.00000000
  57         0.00000000
  58        -0.00000000
  59        -0.00000000
  60        -0.00000000
  61         0.00000000
Sym=    30a  
Ene=     4.7411
Spin= Alpha
Occup=    0.00000
   1        -0.00000000
   2        -0.00000000
   3        -0.00000000
   4        -0.00000000
   5        -0.00000000
   6        -0.00000000
   7        -0.00000000
   8        -0.00000000
   9        -0.00000000
  10        -0.00000000
  11         0.00000000
  12         0.00000000
  13         0.00000000
  14        -0.00000000
  15         0.00365297
  16        -0.00000000
  17         0.00000000
  18        -0.03355060
  19        -0.00000000
  20        -0.00000000
  21         0.17223192
  22        -0.00000000
  23         0.00000000
  24        -0.71464487
  25        -0.00000000
  26         0.00000000
  27         2.86764427
  28        -0.00000000
  29        -0.00000000
  30        -3.05078464
  31        -0.00000000
  32         0.00000000
  33         1.90124666
  34        -0.00000000
  35        -0.00000000
  36        -0.82579696
  37        -0.00000000
  38         0.00000000
  39         0.21096474
  40        -0.00000000
  41        -0.00000000
  42        -0.00000000
  43         0.00000000
  44         0.00000000
  45        -0.00000000
  46        -0.00000000
  47        -0.00000000
  48        -0.00000000
  49        -0.00000000
  50         0.00000000
  51         0.00000000
  52         0.00000000
  53         0.00000000
  54         0.00000000
  55        -0.00000000
  56        -0.00000000
  57         0.00000000
  58        -0.00000000
  59        -0.00000000
  60         0.00000000
  61         0.00000000
Sym=    31a  
Ene=     5.1102
Spin= Alpha
Occup=    0.00000
   1        -0.00000000
   2        -0.00000000
   3         0.00000000
   4        -0.00000000
   5         0.00000000
   6        -0.00000000
   7         0.00000000
   8        -0.00000000
   9         0.00000000
  10        -0.00000000
  11         0.00000000
  12        -0.00000000
  13         0.00000000
  14        -0.00000000
  15        -0.00000000
  16        -0.00000000
  17         0.00000000
  18         0.00000000
  19        -0.00000000
  20        -0.00000000
  21         0.00000000
  22         0.00000000
  23         0.00000000
  24        -0.00000000
  25        -0.00000000
  26         0.00000000
  27         0.00000000
  28        -0.00000000
  29        -0.00000000
  30        -0.00000000
  31        -0.00000000
  32        -0.00000000
  33        -0.00000000
  34        -0.00000000
  35         0.00000000
  36         0.00000000
  37         0.00000000
  38         0.00000000
  39        -0.00000000
  40        -0.00000000
  41        -0.00000000
  42         0.00019740
  43         0.13021375
  44        -0.16713173
  45        -0.00017572
  46        -0.00000000
  47        -0.00142053
  48        -0.93704638
  49         1.20271620
  50         0.00126454
  51         0.00000000
  52         0.00093603
  53         0.61745159
  54        -0.79251043
  55        -0.00083325
  56        -0.00000000
  57        -0.00031705
  58        -0.20914281
  59         0.26843863
  60         0.00028224
  61         0.00000000
Sym=    32a  
Ene=     5.1102
Spin= Alpha
Occup=    0.00000
   1         0.00000000
   2        -0.00000000
   3         0.00000000
   4        -0.00000000
   5         0.00000000
   6        -0.00000000
   7         0.00000000
   8        -0.00000000
   9         0.00000000
  10        -0.00000000
  11         0.00000000
  12        -0.00000000
  13         0.00000000
  14        -0.00000000
  15        -0.00000000
  16        -0.00000000
  17         0.00000000
  18         0.00000000
  19        -0.00000000
  20        -0.00000000
  21        -0.00000000
  22         0.00000000
  23        -0.00000000
  24        -0.00000000
  25        -0.00000000
  26         0.00000000
  27        -0.00000000
  28         0.00000000
  29        -0.00000000
  30         0.00000000
  31        -0.00000000
  32         0.00000000
  33         0.00000000
  34        -0.00000000
  35        -0.00000000
  36         0.00000000
  37         0.00000000
  38         0.00000000
  39        -0.00000000
  40        -0.00000000
  41        -0.00000000
  42        -0.00000001
  43        -0.00000000
  44        -0.00000000
  45        -0.00000000
  46        -0.21186955
  47         0.00000005
  48         0.00000000
  49         0.00000000
  50         0.00000000
  51         1.52465924
  52        -0.00000003
  53        -0.00000000
  54        -0.00000000
  55        -0.00000000
  56        -1.00464960
  57         0.00000001
  58         0.00000000
  59         0.00000000
  60         0.00000000
  61         0.34029428
Sym=    33a  
Ene=     5.1102
Spin= Alpha
Occup=    0.00000
   1        -0.00000000
   2         0.00000000
   3        -0.00000000
   4         0.00000000
   5        -0.00000000
   6         0.00000000
   7        -0.00000000
   8         0.00000000
   9        -0.00000000
  10         0.00000000
  11        -0.00000000
  12         0.00000000
  13        -0.00000000
  14         0.00000000
  15         0.00000000
  16         0.00000000
  17        -0.00000000
  18        -0.00000000
  19         0.00000000
  20         0.00000000
  21        -0.00000000
  22        -0.00000000
  23        -0.00000000
  24         0.00000000
  25         0.00000000
  26        -0.00000000
  27        -0.00000000
  28        -0.00000000
  29         0.00000000
  30        -0.00000000
  31         0.00000000
  32        -0.00000000
  33         0.00000000
  34         0.00000000
  35         0.00000000
  36        -0.00000000
  37        -0.00000000
  38        -0.00000000
  39         0.00000000
  40         0.00000000
  41         0.00000000
  42         0.02122715
  43        -0.16518677
  44        -0.12864756
  45        -0.02452038
  46        -0.00000000
  47        -0.15275519
  48         1.18871985
  49         0.92577576
  50         0.17645396
  51         0.00000000
  52         0.10065557
  53        -0.78328776
  54        -0.61002500
  55        -0.11627149
  56        -0.00000000
  57        -0.03409399
  58         0.26531474
  59         0.20662728
  60         0.03938341
  61         0.00000000
Sym=    34a  
Ene=     5.1102
Spin= Alpha
Occup=    0.00000
   1         0.00000000
   2        -0.00000000
   3         0.00000000
   4        -0.00000000
   5         0.00000000
   6        -0.00000000
   7         0.00000000
   8        -0.00000000
   9         0.00000000
  10        -0.00000000
  11         0.00000000
  12         0.00000000
  13        -0.00000000
  14         0.00000000
  15         0.00000000
  16         0.00000000
  17        -0.00000000
  18        -0.00000000
  19         0.00000000
  20         0.00000000
  21        -0.00000000
  22         0.00000000
  23        -0.00000000
  24         0.00000000
  25        -0.00000000
  26         0.00000000
  27        -0.00000000
  28         0.00000000
  29        -0.00000000
  30         0.00000000
  31         0.00000000
  32         0.00000000
  33         0.00000000
  34        -0.00000000
  35        -0.00000000
  36        -0.00000000
  37         0.00000000
  38         0.00000000
  39         0.00000000
  40         0.00000000
  41        -0.00000000
  42        -0.16103526
  43        -0.00013737
  44        -0.00015247
  45        -0.13768191
  46         0.00000001
  47         1.15884466
  48         0.00098858
  49         0.00109720
  50         0.99078891
  51        -0.00000004
  52        -0.76360199
  53        -0.00065141
  54        -0.00072298
  55        -0.65286436
  56         0.00000003
  57         0.25864678
  58         0.00022064
  59         0.00024489
  60         0.22113781
  61        -0.00000001
Sym=    35a  
Ene=     5.1102
Spin= Alpha
Occup=    0.00000
   1        -0.00000000
   2         0.00000000
   3        -0.00000000
   4         0.00000000
   5        -0.00000000
   6         0.00000000
   7        -0.00000000
   8         0.00000000
   9        -0.00000000
  10         0.00000000
  11        -0.00000000
  12        -0.00000000
  13         0.00000000
  14        -0.00000000
  15        -0.00000000
  16        -0.00000000
  17         0.00000000
  18         0.00000000
  19        -0.00000000
  20        -0.00000000
  21         0.00000000
  22        -0.00000000
  23         0.00000000
  24        -0.00000000
  25         0.00000000
  26        -0.00000000
  27         0.00000000
  28        -0.00000000
  29         0.00000000
  30        -0.00000000
  31        -0.00000000
  32        -0.00000000
  33        -0.00000000
  34         0.00000000
  35         0.00000000
  36         0.00000000
  37        -0.00000000
  38        -0.00000000
  39        -0.00000000
  40        -0.00000000
  41         0.00000000
  42         0.13603573
  43         0.02542434
  44         0.02013633
  45        -0.15915752
  46        -0.00000000
  47        -0.97894264
  48        -0.18295905
  49        -0.14490538
  50         1.14533206
  51         0.00000003
  52         0.64505845
  53         0.12055792
  54         0.09548306
  55        -0.75469808
  56        -0.00000002
  57        -0.21849379
  58        -0.04083530
  59        -0.03234196
  60         0.25563086
  61         0.00000001
Sym=    36a  
Ene=     6.3017
Spin= Alpha
Occup=    0.00000
   1        -0.00001029
   2         0.00012557
   3        -0.00090052
   4         0.00482409
   5        -0.02205478
   6         0.08531077
   7        -0.34197736
   8         1.05761689
   9        -4.15833903
  10         7.44990745
  11        -6.29546294
  12         3.37006960
  13        -1.47562453
  14         0.34611706
  15         0.00000000
  16         0.00000000
  17        -0.00000000
  18        -0.00000000
  19         0.00000000
  20         0.00000000
  21        -0.00000000
  22        -0.00000000
  23        -0.00000000
  24         0.00000000
  25         0.00000000
  26        -0.00000000
  27        -0.00000000
  28         0.00000000
  29         0.00000000
  30         0.00000000
  31         0.00000000
  32         0.00000000
  33         0.00000000
  34         0.00000000
  35        -0.00000000
  36        -0.00000000
  37         0.00000000
  38        -0.00000000
  39         0.00000000
  40         0.00000000
  41         0.00000000
  42         0.00000000
  43         0.00000000
  44         0.00000000
  45         0.00000000
  46         0.00000000
  47        -0.00000000
  48        -0.00000000
  49         0.00000000
  50        -0.00000000
  51         0.00000000
  52         0.00000000
  53         0.00000000
  54        -0.00000000
  55         0.00000000
  56        -0.00000000
  57        -0.00000000
  58        -0.00000000
  59         0.00000000
  60        -0.00000000
  61         0.00000000
Sym=    37a  
Ene=     7.3443
Spin= Alpha
Occup=    0.00000
   1        -0.00000000
   2        -0.00000000
   3        -0.00000000
   4        -0.00000000
   5        -0.00000000
   6        -0.00000000
   7        -0.00000000
   8        -0.00000000
   9         0.00000000
  10         0.00000000
  11        -0.00000000
  12        -0.00000000
  13        -0.00000000
  14         0.00000000
  15        -0.00000000
  16        -0.00000000
  17        -0.01060309
  18         0.00000000
  19        -0.00000000
  20         0.10127846
  21         0.00000000
  22        -0.00000000
  23        -0.56339860
  24        -0.00000000
  25        -0.00000000
  26         2.67993504
  27         0.00000000
  28        -0.00000000
  29        -2.96408760
  30        -0.00000000
  31        -0.00000000
  32         2.01107460
  33        -0.00000000
  34        -0.00000000
  35        -1.10320054
  36         0.00000000
  37        -0.00000000
  38         0.47313604
  39        -0.00000000
  40        -0.00000000
  41        -0.12253614
  42         0.00000000
  43        -0.00000000
  44        -0.00000000
  45         0.00000000
  46         0.00000000
  47        -0.00000000
  48         0.00000000
  49         0.00000000
  50        -0.00000000
  51        -0.00000000
  52         0.00000000
  53        -0.00000000
  54        -0.00000000
  55         0.00000000
  56         0.00000000
  57        -0.00000000
  58         0.00000000
  59         0.00000000
  60         0.00000000
  61        -0.00000000
Sym=    38a  
Ene=     7.3443
Spin= Alpha
Occup=    0.00000
   1         0.00000000
   2         0.00000000
   3         0.00000000
   4         0.00000000
   5         0.00000000
   6         0.00000000
   7         0.00000000
   8         0.00000000
   9         0.00000000
  10         0.00000000
  11         0.00000000
  12         0.00000000
  13         0.00000000
  14        -0.00000000
  15         0.00000000
  16        -0.01060309
  17         0.00000000
  18         0.00000000
  19         0.10127846
  20        -0.00000000
  21        -0.00000000
  22        -0.56339860
  23         0.00000000
  24         0.00000000
  25         2.67993504
  26         0.00000000
  27         0.00000000
  28        -2.96408760
  29        -0.00000000
  30         0.00000000
  31         2.01107460
  32        -0.00000000
  33        -0.00000000
  34        -1.10320054
  35         0.00000000
  36         0.00000000
  37         0.47313604
  38         0.00000000
  39        -0.00000000
  40        -0.12253614
  41        -0.00000000
  42        -0.00000000
  43         0.00000000
  44         0.00000000
  45        -0.00000000
  46        -0.00000000
  47         0.00000000
  48        -0.00000000
  49        -0.00000000
  50         0.00000000
  51         0.00000000
  52        -0.00000000
  53         0.00000000
  54         0.00000000
  55         0.00000000
  56        -0.00000000
  57         0.00000000
  58        -0.00000000
  59        -0.00000000
  60        -0.00000000
  61         0.00000000
Sym=    39a  
Ene=     7.3443
Spin= Alpha
Occup=    0.00000
   1         0.00000000
   2         0.00000000
   3         0.00000000
   4         0.00000000
   5         0.00000000
   6         0.00000000
   7         0.00000000
   8         0.00000000
   9         0.00000000
  10         0.00000000
  11         0.00000000
  12         0.00000000
  13         0.00000000
  14        -0.00000000
  15        -0.01060309
  16        -0.00000000
  17         0.00000000
  18         0.10127846
  19        -0.00000000
  20        -0.00000000
  21        -0.56339860
  22        -0.00000000
  23         0.00000000
  24         2.67993504
  25        -0.00000000
  26         0.00000000
  27        -2.96408760
  28        -0.00000000
  29        -0.00000000
  30         2.01107460
  31        -0.00000000
  32        -0.00000000
  33        -1.10320054
  34        -0.00000000
  35         0.00000000
  36         0.47313604
  37        -0.00000000
  38         0.00000000
  39        -0.12253614
  40        -0.00000000
  41        -0.00000000
  42        -0.00000000
  43         0.00000000
  44         0.00000000
  45        -0.00000000
  46        -0.00000000
  47         0.00000000
  48        -0.00000000
  49        -0.00000000
  50         0.00000000
  51         0.00000000
  52        -0.00000000
  53         0.00000000
  54         0.00000000
  55         0.00000000
  56        -0.00000000
  57         0.00000000
  58        -0.00000000
  59        -0.00000000
  60        -0.00000000
  61         0.00000000
Sym=    40a  
Ene=     9.3895
Spin= Alpha
Occup=    0.00000
   1        -0.00000000
   2         0.00000000
   3         0.00000000
   4         0.00000000
   5        -0.00000000
   6        -0.00000000
   7         0.00000000
   8        -0.00000000
   9         0.00000000
  10         0.00000000
  11        -0.00000000
  12        -0.00000000
  13        -0.00000000
  14         0.00000000
  15        -0.00000000
  16        -0.00000000
  17         0.00000000
  18         0.00000000
  19        -0.00000000
  20        -0.00000000
  21         0.00000000
  22        -0.00000000
  23         0.00000000
  24        -0.00000000
  25        -0.00000000
  26         0.00000000
  27         0.00000000
  28        -0.00000000
  29        -0.00000000
  30         0.00000000
  31        -0.00000000
  32         0.00000000
  33        -0.00000000
  34        -0.00000000
  35        -0.00000000
  36         0.00000000
  37        -0.00000000
  38         0.00000000
  39        -0.00000000
  40        -0.00000000
  41        -0.00000000
  42        -0.00599685
  43         0.62959695
  44         1.22189079
  45         0.00364465
  46         0.00000000
  47         0.00449304
  48        -0.47171519
  49        -0.91548163
  50        -0.00273069
  51        -0.00000000
  52        -0.00209035
  53         0.21946177
  54         0.42592061
  55         0.00127043
  56         0.00000000
  57         0.00068766
  58        -0.07219629
  59        -0.14011500
  60        -0.00041793
  61        -0.00000000
Sym=    41a  
Ene=     9.3895
Spin= Alpha
Occup=    0.00000
   1        -0.00000000
   2         0.00000000
   3        -0.00000000
   4         0.00000000
   5        -0.00000000
   6         0.00000000
   7        -0.00000000
   8         0.00000000
   9        -0.00000000
  10         0.00000000
  11        -0.00000000
  12         0.00000000
  13         0.00000000
  14        -0.00000000
  15         0.00000000
  16         0.00000000
  17        -0.00000000
  18        -0.00000000
  19         0.00000000
  20         0.00000000
  21        -0.00000000
  22        -0.00000000
  23        -0.00000000
  24         0.00000000
  25         0.00000000
  26        -0.00000000
  27        -0.00000000
  28         0.00000000
  29         0.00000000
  30         0.00000000
  31         0.00000000
  32        -0.00000000
  33         0.00000000
  34         0.00000000
  35         0.00000000
  36        -0.00000000
  37        -0.00000000
  38        -0.00000000
  39         0.00000000
  40         0.00000000
  41         0.00000000
  42        -0.89758164
  43        -0.00239818
  44        -0.00627470
  45         1.04103830
  46         0.00000028
  47         0.67249832
  48         0.00179679
  49         0.00470122
  50        -0.77998087
  51        -0.00000021
  52        -0.31287454
  53        -0.00083594
  54        -0.00218720
  55         0.36287995
  56         0.00000010
  57         0.10292626
  58         0.00027500
  59         0.00071952
  60        -0.11937653
  61        -0.00000003
Sym=    42a  
Ene=     9.3895
Spin= Alpha
Occup=    0.00000
   1         0.00000000
   2        -0.00000000
   3         0.00000000
   4        -0.00000000
   5         0.00000000
   6        -0.00000000
   7         0.00000000
   8        -0.00000000
   9         0.00000000
  10        -0.00000000
  11         0.00000000
  12         0.00000000
  13        -0.00000000
  14         0.00000000
  15         0.00000000
  16         0.00000000
  17         0.00000000
  18        -0.00000000
  19        -0.00000000
  20         0.00000000
  21        -0.00000000
  22         0.00000000
  23        -0.00000000
  24         0.00000000
  25        -0.00000000
  26         0.00000000
  27        -0.00000000
  28         0.00000000
  29        -0.00000000
  30        -0.00000000
  31         0.00000000
  32         0.00000000
  33         0.00000000
  34        -0.00000000
  35        -0.00000000
  36        -0.00000000
  37         0.00000000
  38         0.00000000
  39         0.00000000
  40        -0.00000000
  41        -0.00000000
  42         1.04104257
  43         0.00093617
  44         0.00194955
  45         0.89759922
  46         0.00000000
  47        -0.77998407
  48        -0.00070141
  49        -0.00146067
  50        -0.67251149
  51        -0.00000000
  52         0.36288143
  53         0.00032632
  54         0.00067956
  55         0.31288067
  56         0.00000000
  57        -0.11937702
  58        -0.00010735
  59        -0.00022356
  60        -0.10292828
  61        -0.00000000
Sym=    43a  
Ene=     9.3895
Spin= Alpha
Occup=    0.00000
   1         0.00000000
   2        -0.00000000
   3         0.00000000
   4        -0.00000000
   5         0.00000000
   6        -0.00000000
   7         0.00000000
   8        -0.00000000
   9         0.00000000
  10        -0.00000000
  11         0.00000000
  12        -0.00000000
  13         0.00000000
  14        -0.00000000
  15        -0.00000000
  16        -0.00000000
  17        -0.00000000
  18         0.00000000
  19        -0.00000000
  20         0.00000000
  21         0.00000000
  22        -0.00000000
  23         0.00000000
  24        -0.00000000
  25         0.00000000
  26        -0.00000000
  27         0.00000000
  28        -0.00000000
  29         0.00000000
  30        -0.00000000
  31        -0.00000000
  32        -0.00000000
  33        -0.00000000
  34        -0.00000000
  35         0.00000000
  36        -0.00000000
  37        -0.00000000
  38        -0.00000000
  39        -0.00000000
  40        -0.00000000
  41         0.00000000
  42         0.00000018
  43         0.00000000
  44         0.00000000
  45        -0.00000021
  46         1.37457581
  47        -0.00000013
  48        -0.00000000
  49        -0.00000000
  50         0.00000016
  51        -1.02987838
  52         0.00000006
  53         0.00000000
  54         0.00000000
  55        -0.00000007
  56         0.47914279
  57        -0.00000002
  58        -0.00000000
  59        -0.00000000
  60         0.00000002
  61        -0.15762349
Sym=    44a  
Ene=     9.3895
Spin= Alpha
Occup=    0.00000
   1         0.00000000
   2         0.00000000
   3        -0.00000000
   4         0.00000000
   5         0.00000000
   6         0.00000000
   7         0.00000000
   8        -0.00000000
   9         0.00000000
  10        -0.00000000
  11         0.00000000
  12        -0.00000000
  13         0.00000000
  14        -0.00000000
  15        -0.00000000
  16        -0.00000000
  17         0.00000000
  18         0.00000000
  19        -0.00000000
  20        -0.00000000
  21         0.00000000
  22        -0.00000000
  23         0.00000000
  24        -0.00000000
  25        -0.00000000
  26         0.00000000
  27         0.00000000
  28        -0.00000000
  29        -0.00000000
  30         0.00000000
  31        -0.00000000
  32         0.00000000
  33        -0.00000000
  34        -0.00000000
  35        -0.00000000
  36         0.00000000
  37        -0.00000000
  38         0.00000000
  39        -0.00000000
  40        -0.00000000
  41        -0.00000000
  42         0.00053069
  43         1.22190823
  44        -0.62960178
  45        -0.00052244
  46         0.00000000
  47        -0.00039761
  48        -0.91549469
  49         0.47171880
  50         0.00039143
  51        -0.00000000
  52         0.00018498
  53         0.42592668
  54        -0.21946345
  55        -0.00018211
  56         0.00000000
  57        -0.00006085
  58        -0.14011700
  59         0.07219684
  60         0.00005991
  61        -0.00000000
Sym=    45a  
Ene=    12.8370
Spin= Alpha
Occup=    0.00000
   1        -0.00003183
   2         0.00038905
   3        -0.00278543
   4         0.01513658
   5        -0.06839614
   6         0.28931242
   7        -1.09320301
   8         4.64335685
   9        -7.43129028
  10         6.07261076
  11        -3.66118959
  12         1.90248193
  13        -0.75290772
  14         0.18553299
  15        -0.00000000
  16        -0.00000000
  17         0.00000000
  18         0.00000000
  19        -0.00000000
  20        -0.00000000
  21         0.00000000
  22        -0.00000000
  23         0.00000000
  24        -0.00000000
  25        -0.00000000
  26         0.00000000
  27         0.00000000
  28        -0.00000000
  29         0.00000000
  30         0.00000000
  31        -0.00000000
  32        -0.00000000
  33        -0.00000000
  34        -0.00000000
  35         0.00000000
  36         0.00000000
  37        -0.00000000
  38        -0.00000000
  39        -0.00000000
  40        -0.00000000
  41        -0.00000000
  42         0.00000000
  43         0.00000000
  44         0.00000000
  45         0.00000000
  46         0.00000000
  47        -0.00000000
  48        -0.00000000
  49         0.00000000
  50        -0.00000000
  51        -0.00000000
  52         0.00000000
  53         0.00000000
  54        -0.00000000
  55         0.00000000
  56         0.00000000
  57        -0.00000000
  58        -0.00000000
  59         0.00000000
  60        -0.00000000
  61        -0.00000000
Sym=    46a  
Ene=    14.1670
Spin= Alpha
Occup=    0.00000
   1        -0.00000000
   2        -0.00000000
   3        -0.00000000
   4        -0.00000000
   5        -0.00000000
   6        -0.00000000
   7        -0.00000000
   8        -0.00000000
   9        -0.00000000
  10        -0.00000000
  11         0.00000000
  12         0.00000000
  13         0.00000000
  14        -0.00000000
  15         0.00000000
  16         0.00000000
  17         0.03357444
  18        -0.00000000
  19         0.00000000
  20        -0.35409953
  21        -0.00000000
  22         0.00000000
  23         2.34081123
  24         0.00000000
  25         0.00000000
  26        -2.65216097
  27        -0.00000000
  28         0.00000000
  29         1.88060307
  30         0.00000000
  31         0.00000000
  32        -1.13288768
  33         0.00000000
  34         0.00000000
  35         0.61595319
  36        -0.00000000
  37         0.00000000
  38        -0.26753668
  39         0.00000000
  40         0.00000000
  41         0.07014175
  42        -0.00000000
  43         0.00000000
  44         0.00000000
  45        -0.00000000
  46        -0.00000000
  47        -0.00000000
  48        -0.00000000
  49        -0.00000000
  50         0.00000000
  51         0.00000000
  52         0.00000000
  53         0.00000000
  54         0.00000000
  55        -0.00000000
  56        -0.00000000
  57         0.00000000
  58        -0.00000000
  59        -0.00000000
  60        -0.00000000
  61         0.00000000
Sym=    47a  
Ene=    14.1670
Spin= Alpha
Occup=    0.00000
   1         0.00000000
   2         0.00000000
   3         0.00000000
   4         0.00000000
   5         0.00000000
   6         0.00000000
   7         0.00000000
   8         0.00000000
   9         0.00000000
  10         0.00000000
  11         0.00000000
  12         0.00000000
  13         0.00000000
  14        -0.00000000
  15        -0.00000000
  16         0.03357444
  17         0.00000000
  18         0.00000000
  19        -0.35409953
  20        -0.00000000
  21        -0.00000000
  22         2.34081123
  23         0.00000000
  24         0.00000000
  25        -2.65216097
  26         0.00000000
  27        -0.00000000
  28         1.88060307
  29        -0.00000000
  30         0.00000000
  31        -1.13288768
  32        -0.00000000
  33        -0.00000000
  34         0.61595319
  35         0.00000000
  36         0.00000000
  37        -0.26753668
  38         0.00000000
  39        -0.00000000
  40         0.07014175
  41        -0.00000000
  42        -0.00000000
  43         0.00000000
  44         0.00000000
  45        -0.00000000
  46        -0.00000000
  47         0.00000000
  48        -0.00000000
  49        -0.00000000
  50         0.00000000
  51         0.00000000
  52        -0.00000000
  53         0.00000000
  54         0.00000000
  55         0.00000000
  56        -0.00000000
  57         0.00000000
  58        -0.00000000
  59        -0.00000000
  60        -0.00000000
  61         0.00000000
Sym=    48a  
Ene=    14.1670
Spin= Alpha
Occup=    0.00000
   1        -0.00000000
   2        -0.00000000
   3        -0.00000000
   4        -0.00000000
   5        -0.00000000
   6        -0.00000000
   7        -0.00000000
   8        -0.00000000
   9        -0.00000000
  10        -0.00000000
  11        -0.00000000
  12        -0.00000000
  13        -0.00000000
  14         0.00000000
  15         0.03357444
  16         0.00000000
  17        -0.00000000
  18        -0.35409953
  19         0.00000000
  20         0.00000000
  21         2.34081123
  22         0.00000000
  23        -0.00000000
  24        -2.65216097
  25         0.00000000
  26        -0.00000000
  27         1.88060307
  28         0.00000000
  29         0.00000000
  30        -1.13288768
  31         0.00000000
  32         0.00000000
  33         0.61595319
  34         0.00000000
  35        -0.00000000
  36        -0.26753668
  37         0.00000000
  38        -0.00000000
  39         0.07014175
  40         0.00000000
  41         0.00000000
  42         0.00000000
  43        -0.00000000
  44        -0.00000000
  45         0.00000000
  46         0.00000000
  47        -0.00000000
  48         0.00000000
  49         0.00000000
  50        -0.00000000
  51        -0.00000000
  52         0.00000000
  53        -0.00000000
  54        -0.00000000
  55        -0.00000000
  56         0.00000000
  57        -0.00000000
  58         0.00000000
  59         0.00000000
  60         0.00000000
  61        -0.00000000
Sym=    49a  
Ene=    30.2300
Spin= Alpha
Occup=    0.00000
   1         0.00009355
   2        -0.00114414
   3         0.00824295
   4        -0.04509705
   5         0.21344814
   6        -0.93413498
   7         4.27740934
   8        -6.48062668
   9         5.35369118
  10        -3.53999703
  11         2.02430189
  12        -0.98663586
  13         0.43252668
  14        -0.10360120
  15         0.00000000
  16         0.00000000
  17        -0.00000000
  18        -0.00000000
  19         0.00000000
  20         0.00000000
  21        -0.00000000
  22         0.00000000
  23        -0.00000000
  24         0.00000000
  25        -0.00000000
  26         0.00000000
  27        -0.00000000
  28         0.00000000
  29        -0.00000000
  30        -0.00000000
  31         0.00000000
  32         0.00000000
  33         0.00000000
  34         0.00000000
  35        -0.00000000
  36        -0.00000000
  37         0.00000000
  38         0.00000000
  39         0.00000000
  40         0.00000000
  41         0.00000000
  42        -0.00000000
  43         0.00000000
  44        -0.00000000
  45        -0.00000000
  46         0.00000000
  47         0.00000000
  48        -0.00000000
  49         0.00000000
  50         0.00000000
  51        -0.00000000
  52        -0.00000000
  53         0.00000000
  54        -0.00000000
  55        -0.00000000
  56         0.00000000
  57         0.00000000
  58        -0.00000000
  59        -0.00000000
  60         0.00000000
  61        -0.00000000
Sym=    50a  
Ene=    34.0240
Spin= Alpha
Occup=    0.00000
   1         0.00000000
   2         0.00000000
   3         0.00000000
   4         0.00000000
   5         0.00000000
   6         0.00000000
   7         0.00000000
   8         0.00000000
   9         0.00000000
  10        -0.00000000
  11         0.00000000
  12         0.00000000
  13         0.00000000
  14        -0.00000000
  15         0.00000000
  16         0.00000000
  17        -0.13266498
  18        -0.00000000
  19         0.00000000
  20         1.84676789
  21         0.00000000
  22        -0.00000000
  23        -2.08590579
  24         0.00000000
  25         0.00000000
  26         1.54451447
  27         0.00000000
  28        -0.00000000
  29        -0.99148580
  30        -0.00000000
  31        -0.00000000
  32         0.59665165
  33        -0.00000000
  34         0.00000000
  35        -0.32928619
  36        -0.00000000
  37         0.00000000
  38         0.14465487
  39         0.00000000
  40         0.00000000
  41        -0.03819989
  42        -0.00000000
  43         0.00000000
  44         0.00000000
  45        -0.00000000
  46        -0.00000000
  47         0.00000000
  48        -0.00000000
  49        -0.00000000
  50         0.00000000
  51         0.00000000
  52        -0.00000000
  53         0.00000000
  54         0.00000000
  55        -0.00000000
  56        -0.00000000
  57         0.00000000
  58        -0.00000000
  59        -0.00000000
  60        -0.00000000
  61         0.00000000
Sym=    51a  
Ene=    34.0240
Spin= Alpha
Occup=    0.00000
   1         0.00000000
   2         0.00000000
   3         0.00000000
   4         0.00000000
   5         0.00000000
   6         0.00000000
   7         0.00000000
   8         0.00000000
   9         0.00000000
  10         0.00000000
  11         0.00000000
  12         0.00000000
  13         0.00000000
  14        -0.00000000
  15         0.00000000
  16        -0.13266498
  17         0.00000000
  18        -0.00000000
  19         1.84676789
  20        -0.00000000
  21         0.00000000
  22        -2.08590579
  23         0.00000000
  24        -0.00000000
  25         1.54451447
  26         0.00000000
  27         0.00000000
  28        -0.99148580
  29        -0.00000000
  30        -0.00000000
  31         0.59665165
  32        -0.00000000
  33        -0.00000000
  34        -0.32928619
  35         0.00000000
  36         0.00000000
  37         0.14465487
  38         0.00000000
  39        -0.00000000
  40        -0.03819989
  41        -0.00000000
  42        -0.00000000
  43         0.00000000
  44         0.00000000
  45        -0.00000000
  46        -0.00000000
  47         0.00000000
  48        -0.00000000
  49        -0.00000000
  50         0.00000000
  51         0.00000000
  52        -0.00000000
  53         0.00000000
  54         0.00000000
  55         0.00000000
  56        -0.00000000
  57         0.00000000
  58        -0.00000000
  59        -0.00000000
  60        -0.00000000
  61         0.00000000
Sym=    52a  
Ene=    34.0240
Spin= Alpha
Occup=    0.00000
   1        -0.00000000
   2        -0.00000000
   3        -0.00000000
   4        -0.00000000
   5        -0.00000000
   6        -0.00000000
   7        -0.00000000
   8        -0.00000000
   9        -0.00000000
  10        -0.00000000
  11        -0.00000000
  12        -0.00000000
  13        -0.00000000
  14         0.00000000
  15        -0.13266498
  16         0.00000000
  17        -0.00000000
  18         1.84676789
  19         0.00000000
  20         0.00000000
  21        -2.08590579
  22         0.00000000
  23        -0.00000000
  24         1.54451447
  25         0.00000000
  26        -0.00000000
  27        -0.99148580
  28         0.00000000
  29         0.00000000
  30         0.59665165
  31         0.00000000
  32         0.00000000
  33        -0.32928619
  34         0.00000000
  35        -0.00000000
  36         0.14465487
  37         0.00000000
  38        -0.00000000
  39        -0.03819989
  40         0.00000000
  41         0.00000000
  42         0.00000000
  43        -0.00000000
  44        -0.00000000
  45         0.00000000
  46         0.00000000
  47        -0.00000000
  48         0.00000000
  49         0.00000000
  50        -0.00000000
  51        -0.00000000
  52         0.00000000
  53        -0.00000000
  54        -0.00000000
  55        -0.00000000
  56         0.00000000
  57        -0.00000000
  58         0.00000000
  59         0.00000000
  60         0.00000000
  61        -0.00000000
