[MOLDEN FORMAT]
[N_ATOMS]
                    1
[ATOMS] (AU)
BE          1      4           0.00000000      0.00000000      0.00000000
[5D]
[CHARGE] (MULLIKEN)
  -5.1514348342607263E-014
[GTO] (AU)
   1
   s   1
  0.226285990E+05  0.100000000E+01
   s   1
  0.337231810E+04  0.100000000E+01
   s   1
  0.760350400E+03  0.100000000E+01
   s   1
  0.211740480E+03  0.100000000E+01
   s   1
  0.672234680E+02  0.100000000E+01
   s   1
  0.233721770E+02  0.100000000E+01
   s   1
  0.872137300E+01  0.100000000E+01
   s   1
  0.346809100E+01  0.100000000E+01
   s   1
  0.145214400E+01  0.100000000E+01
   s   1
  0.608615000E+00  0.100000000E+01
   s   1
  0.257686000E+00  0.100000000E+01
   s   1
  0.104176000E+00  0.100000000E+01
   s   1
  0.424270000E-01  0.100000000E+01
   s   1
  0.148490000E-01  0.100000000E+01
   p   1
  0.337101840E+02  0.100000000E+01
   p   1
  0.805764950E+01  0.100000000E+01
   p   1
  0.283647140E+01  0.100000000E+01
   p   1
  0.109996570E+01  0.100000000E+01
   p   1
  0.443396400E+00  0.100000000E+01
   p   1
  0.182226400E+00  0.100000000E+01
   p   1
  0.757241000E-01  0.100000000E+01
   p   1
  0.316854000E-01  0.100000000E+01
   p   1
  0.110899000E-01  0.100000000E+01
   d   1
  0.140000000E+01  0.100000000E+01
   d   1
  0.490000000E+00  0.100000000E+01
   d   1
  0.171500000E+00  0.100000000E+01
   d   1
  0.600250000E-01  0.100000000E+01
 
[MO]
Sym=     1a  
Ene=     0.0000
Spin= Alpha
Occup=    1.99687
   1         0.00005343
   2         0.00041899
   3         0.00223092
   4         0.00958284
   5         0.03490724
   6         0.10626868
   7         0.24610540
   8         0.38680161
   9         0.31187998
  10         0.06508615
  11        -0.00468949
  12        -0.00595278
  13        -0.00286506
  14         0.00009174
  15         0.00000000
  16        -0.00000000
  17         0.00000000
  18        -0.00000000
  19         0.00000000
  20        -0.00000000
  21         0.00000000
  22        -0.00000000
  23         0.00000000
  24         0.00000000
  25        -0.00000000
  26         0.00000000
  27        -0.00000000
  28         0.00000000
  29        -0.00000000
  30         0.00000000
  31         0.00000000
  32         0.00000000
  33        -0.00000000
  34         0.00000000
  35        -0.00000000
  36        -0.00000000
  37         0.00000000
  38        -0.00000000
  39         0.00000000
  40        -0.00000000
  41         0.00000000
  42        -0.00000000
  43        -0.00000000
  44         0.00000000
  45        -0.00000000
  46        -0.00000000
  47         0.00000000
  48         0.00000000
  49        -0.00000000
  50         0.00000000
  51         0.00000000
  52        -0.00000000
  53        -0.00000000
  54         0.00000000
  55        -0.00000000
  56        -0.00000000
  57         0.00000000
  58        -0.00000000
  59         0.00000000
  60         0.00000000
  61        -0.00000000
Sym=     2a  
Ene=     0.0000
Spin= Alpha
Occup=    1.80733
   1        -0.00000939
   2        -0.00007368
   3        -0.00039272
   4        -0.00169457
   5        -0.00624875
   6        -0.01966324
   7        -0.04896325
   8        -0.09306341
   9        -0.13030485
  10        -0.06104368
  11         0.29063838
  12         0.62414702
  13         0.23093545
  14        -0.00194247
  15         0.00000000
  16        -0.00000000
  17         0.00000000
  18         0.00000000
  19        -0.00000000
  20         0.00000000
  21        -0.00000000
  22         0.00000001
  23        -0.00000000
  24        -0.00000001
  25         0.00000002
  26        -0.00000001
  27        -0.00000002
  28         0.00000005
  29        -0.00000002
  30        -0.00000001
  31         0.00000004
  32        -0.00000002
  33         0.00000003
  34        -0.00000008
  35         0.00000004
  36         0.00000001
  37        -0.00000003
  38         0.00000001
  39        -0.00000000
  40         0.00000000
  41        -0.00000000
  42        -0.00000000
  43        -0.00000000
  44         0.00000001
  45        -0.00000000
  46        -0.00000000
  47        -0.00000001
  48        -0.00000000
  49         0.00000004
  50        -0.00000002
  51        -0.00000000
  52         0.00000002
  53         0.00000001
  54        -0.00000007
  55         0.00000004
  56         0.00000000
  57        -0.00000000
  58         0.00000001
  59        -0.00000007
  60         0.00000000
  61         0.00000000
Sym=     3a  
Ene=     0.0000
Spin= Alpha
Occup=    0.00063
   1        -0.00000000
   2        -0.00000000
   3        -0.00000000
   4        -0.00000002
   5        -0.00000003
   6        -0.00000035
   7         0.00000024
   8        -0.00000049
   9         0.00000131
  10        -0.00000122
  11         0.00000048
  12        -0.00000021
  13         0.00000018
  14        -0.00000001
  15        -0.00968641
  16         0.04729996
  17         0.06300814
  18        -0.07109917
  19         0.34718650
  20         0.46248577
  21        -0.05519653
  22         0.26953170
  23         0.35904235
  24        -0.00201855
  25         0.00985779
  26         0.01313025
  27         0.00520243
  28        -0.02540611
  29        -0.03384076
  30         0.01291348
  31        -0.06305750
  32        -0.08399957
  33         0.00625049
  34        -0.03052176
  35        -0.04065819
  36         0.00028849
  37        -0.00140870
  38        -0.00187658
  39         0.00000128
  40        -0.00000753
  41        -0.00000836
  42         0.00000001
  43         0.00000000
  44        -0.00000001
  45         0.00000001
  46         0.00000000
  47        -0.00000000
  48        -0.00000000
  49         0.00000000
  50        -0.00000000
  51        -0.00000000
  52         0.00000000
  53        -0.00000000
  54         0.00000001
  55        -0.00000000
  56        -0.00000000
  57        -0.00000001
  58        -0.00000000
  59        -0.00000001
  60         0.00000000
  61        -0.00000000
Sym=     4a  
Ene=     0.0000
Spin= Alpha
Occup=    0.00063
   1        -0.00000000
   2        -0.00000000
   3        -0.00000000
   4        -0.00000007
   5        -0.00000003
   6        -0.00000131
   7         0.00000112
   8        -0.00000165
   9         0.00000333
  10        -0.00000228
  11         0.00000015
  12        -0.00000010
  13         0.00000042
  14         0.00000009
  15        -0.00415252
  16         0.06308841
  17        -0.04799867
  18        -0.03047966
  19         0.46307235
  20        -0.35231256
  21        -0.02366211
  22         0.35949407
  23        -0.27350886
  24        -0.00086528
  25         0.01314744
  26        -0.01000175
  27         0.00223011
  28        -0.03388452
  29         0.02577782
  30         0.00553582
  31        -0.08410374
  32         0.06398816
  33         0.00267964
  34        -0.04071101
  35         0.03097375
  36         0.00012358
  37        -0.00187751
  38         0.00142848
  39         0.00000055
  40        -0.00001009
  41         0.00000641
  42         0.00000000
  43        -0.00000000
  44         0.00000001
  45         0.00000001
  46         0.00000000
  47        -0.00000000
  48         0.00000000
  49        -0.00000001
  50        -0.00000000
  51        -0.00000000
  52        -0.00000000
  53         0.00000000
  54        -0.00000000
  55        -0.00000000
  56        -0.00000000
  57         0.00000001
  58         0.00000000
  59        -0.00000001
  60         0.00000000
  61        -0.00000000
Sym=     5a  
Ene=     0.0000
Spin= Alpha
Occup=    0.00063
   1         0.00000000
   2         0.00000000
   3         0.00000000
   4         0.00000001
   5         0.00000005
   6         0.00000018
   7         0.00000021
   8        -0.00000044
   9         0.00000007
  10        -0.00000011
  11         0.00000031
  12        -0.00000009
  13        -0.00000005
  14        -0.00000006
  15         0.07867735
  16         0.00915312
  17         0.00522406
  18         0.57749775
  19         0.06718465
  20         0.03834498
  21         0.44832791
  22         0.05215731
  23         0.02976830
  24         0.01639513
  25         0.00190756
  26         0.00108861
  27        -0.04225536
  28        -0.00491628
  29        -0.00280569
  30        -0.10488803
  31        -0.01220227
  32        -0.00696441
  33        -0.05076995
  34        -0.00590641
  35        -0.00337105
  36        -0.00234251
  37        -0.00027251
  38        -0.00015554
  39        -0.00001045
  40        -0.00000146
  41        -0.00000070
  42        -0.00000000
  43         0.00000000
  44        -0.00000000
  45         0.00000000
  46        -0.00000001
  47         0.00000000
  48        -0.00000000
  49         0.00000000
  50        -0.00000000
  51         0.00000001
  52         0.00000000
  53         0.00000000
  54         0.00000000
  55        -0.00000000
  56         0.00000001
  57         0.00000000
  58        -0.00000001
  59        -0.00000000
  60        -0.00000000
  61        -0.00000000
Sym=     6a  
Ene=     0.0000
Spin= Alpha
Occup=    0.00125
   1         0.00008512
   2         0.00069526
   3         0.00354327
   4         0.01704814
   5         0.06860566
   6         0.34257331
   7         0.74084806
   8        -0.19669604
   9        -0.79191407
  10        -0.18018554
  11         0.08010543
  12         0.19343659
  13         0.06974274
  14        -0.00026574
  15        -0.00000001
  16         0.00000003
  17        -0.00000001
  18        -0.00000013
  19         0.00000031
  20        -0.00000012
  21        -0.00000015
  22         0.00000039
  23        -0.00000014
  24        -0.00000003
  25         0.00000008
  26        -0.00000003
  27        -0.00000004
  28         0.00000011
  29        -0.00000005
  30        -0.00000009
  31         0.00000026
  32        -0.00000011
  33        -0.00000003
  34         0.00000011
  35        -0.00000005
  36         0.00000001
  37        -0.00000001
  38         0.00000001
  39         0.00000000
  40        -0.00000001
  41        -0.00000000
  42         0.00000000
  43        -0.00000000
  44         0.00000003
  45        -0.00000000
  46        -0.00000000
  47        -0.00000000
  48        -0.00000000
  49         0.00000001
  50        -0.00000001
  51        -0.00000000
  52         0.00000001
  53         0.00000000
  54        -0.00000004
  55         0.00000003
  56         0.00000000
  57        -0.00000000
  58         0.00000001
  59        -0.00000005
  60        -0.00000000
  61         0.00000000
Sym=     7a  
Ene=     0.0000
Spin= Alpha
Occup=    0.06422
   1        -0.00000000
   2         0.00000000
   3        -0.00000000
   4         0.00000003
   5        -0.00000009
   6         0.00000050
   7        -0.00000115
   8         0.00000242
   9        -0.00000188
  10         0.00000083
  11        -0.00000151
  12        -0.00000031
  13         0.00000131
  14         0.00000043
  15         0.00012735
  16        -0.00075122
  17         0.00085770
  18         0.00080788
  19        -0.00476548
  20         0.00544096
  21         0.00230148
  22        -0.01357607
  23         0.01550016
  24         0.00556526
  25        -0.03282875
  26         0.03748134
  27         0.02489072
  28        -0.14682607
  29         0.16763596
  30         0.05991861
  31        -0.35344869
  32         0.40354457
  33         0.03328608
  34        -0.19634774
  35         0.22417770
  36         0.00065172
  37        -0.00384464
  38         0.00438925
  39         0.00022566
  40        -0.00133192
  41         0.00151978
  42        -0.00000000
  43        -0.00000000
  44         0.00000000
  45         0.00000000
  46         0.00000000
  47        -0.00000000
  48         0.00000001
  49        -0.00000002
  50        -0.00000001
  51        -0.00000001
  52         0.00000000
  53         0.00000000
  54        -0.00000001
  55        -0.00000001
  56        -0.00000000
  57         0.00000001
  58         0.00000000
  59        -0.00000001
  60        -0.00000000
  61        -0.00000000
Sym=     8a  
Ene=     0.0000
Spin= Alpha
Occup=    0.06422
   1         0.00000000
   2        -0.00000000
   3         0.00000000
   4        -0.00000001
   5         0.00000003
   6        -0.00000021
   7         0.00000055
   8        -0.00000135
   9         0.00000138
  10        -0.00000110
  11         0.00000144
  12        -0.00000035
  13        -0.00000044
  14        -0.00000021
  15        -0.00008616
  16         0.00085419
  17         0.00076095
  18        -0.00054660
  19         0.00541870
  20         0.00482724
  21        -0.00155723
  22         0.01543780
  23         0.01375245
  24        -0.00376560
  25         0.03733083
  26         0.03325546
  27        -0.01684136
  28         0.16695815
  29         0.14873236
  30        -0.04054140
  31         0.40190926
  32         0.35803634
  33        -0.02252137
  34         0.22326607
  35         0.19889467
  36        -0.00044099
  37         0.00437215
  38         0.00389460
  39        -0.00015271
  40         0.00151483
  41         0.00134866
  42        -0.00000000
  43        -0.00000000
  44         0.00000000
  45        -0.00000000
  46        -0.00000000
  47         0.00000002
  48         0.00000000
  49        -0.00000001
  50         0.00000002
  51         0.00000001
  52         0.00000001
  53         0.00000000
  54        -0.00000000
  55         0.00000001
  56         0.00000000
  57         0.00000001
  58         0.00000000
  59         0.00000001
  60         0.00000000
  61         0.00000000
Sym=     9a  
Ene=     0.0000
Spin= Alpha
Occup=    0.06422
   1         0.00000000
   2        -0.00000000
   3         0.00000000
   4        -0.00000000
   5         0.00000001
   6        -0.00000004
   7         0.00000014
   8        -0.00000016
   9         0.00000038
  10        -0.00000037
  11        -0.00000009
  12        -0.00000018
  13         0.00000039
  14         0.00000004
  15         0.00113690
  16         0.00014889
  17        -0.00003840
  18         0.00721211
  19         0.00094450
  20        -0.00024360
  21         0.02054609
  22         0.00269077
  23        -0.00069398
  24         0.04968334
  25         0.00650667
  26        -0.00167814
  27         0.22220761
  28         0.02910072
  29        -0.00750544
  30         0.53491200
  31         0.07005287
  32        -0.01806756
  33         0.29715387
  34         0.03891559
  35        -0.01003687
  36         0.00581827
  37         0.00076202
  38        -0.00019652
  39         0.00201468
  40         0.00026400
  41        -0.00006805
  42         0.00000000
  43        -0.00000000
  44        -0.00000000
  45        -0.00000000
  46         0.00000000
  47        -0.00000000
  48         0.00000001
  49         0.00000000
  50         0.00000001
  51        -0.00000002
  52        -0.00000000
  53         0.00000001
  54         0.00000000
  55         0.00000001
  56        -0.00000001
  57        -0.00000000
  58         0.00000001
  59         0.00000000
  60         0.00000000
  61         0.00000000
Sym=    10a  
Ene=     0.0275
Spin= Alpha
Occup=    0.00000
   1        -0.00000000
   2        -0.00000000
   3        -0.00000000
   4        -0.00000000
   5        -0.00000000
   6        -0.00000000
   7        -0.00000001
   8         0.00000000
   9        -0.00000002
  10         0.00000020
  11        -0.00000030
  12         0.00000053
  13        -0.00000188
  14         0.00000222
  15        -0.00011412
  16         0.00000769
  17        -0.00007406
  18        -0.00026960
  19         0.00001817
  20        -0.00017496
  21        -0.00516280
  22         0.00034803
  23        -0.00335038
  24         0.00581945
  25        -0.00039231
  26         0.00377651
  27        -0.02219830
  28         0.00149642
  29        -0.01440551
  30         0.10117657
  31        -0.00682044
  32         0.06565817
  33        -0.16263897
  34         0.01096370
  35        -0.10554398
  36         0.55845353
  37        -0.03764632
  38         0.36240644
  39        -1.13476712
  40         0.07649668
  41        -0.73640310
  42        -0.00000000
  43        -0.00000000
  44         0.00000000
  45        -0.00000000
  46         0.00000000
  47         0.00000000
  48         0.00000000
  49        -0.00000000
  50         0.00000000
  51        -0.00000000
  52        -0.00000000
  53        -0.00000000
  54         0.00000000
  55        -0.00000000
  56         0.00000000
  57         0.00000000
  58         0.00000001
  59        -0.00000000
  60         0.00000000
  61        -0.00000000
Sym=    11a  
Ene=     0.0275
Spin= Alpha
Occup=    0.00000
   1        -0.00000000
   2        -0.00000000
   3        -0.00000000
   4        -0.00000000
   5        -0.00000000
   6        -0.00000000
   7        -0.00000000
   8         0.00000000
   9        -0.00000001
  10         0.00000009
  11        -0.00000013
  12         0.00000023
  13        -0.00000080
  14         0.00000094
  15         0.00007445
  16         0.00001248
  17        -0.00011344
  18         0.00017590
  19         0.00002947
  20        -0.00026799
  21         0.00336838
  22         0.00056438
  23        -0.00513190
  24        -0.00379676
  25        -0.00063617
  26         0.00578457
  27         0.01448285
  28         0.00242665
  29        -0.02206541
  30        -0.06601066
  31        -0.01106023
  32         0.10057079
  33         0.10611058
  34         0.01777909
  35        -0.16166518
  36        -0.36435197
  37        -0.06104845
  38         0.55510987
  39         0.74035624
  40         0.12404941
  41        -1.12797263
  42        -0.00000000
  43        -0.00000000
  44         0.00000000
  45         0.00000000
  46        -0.00000000
  47         0.00000000
  48        -0.00000000
  49        -0.00000000
  50        -0.00000000
  51         0.00000000
  52        -0.00000000
  53         0.00000000
  54         0.00000000
  55         0.00000000
  56        -0.00000000
  57         0.00000001
  58        -0.00000000
  59        -0.00000001
  60        -0.00000000
  61         0.00000000
Sym=    12a  
Ene=     0.0275
Spin= Alpha
Occup=    0.00000
   1         0.00000000
   2         0.00000000
   3         0.00000000
   4         0.00000000
   5         0.00000000
   6         0.00000000
   7         0.00000002
   8        -0.00000000
   9         0.00000002
  10        -0.00000029
  11         0.00000043
  12        -0.00000075
  13         0.00000266
  14        -0.00000315
  15         0.00000038
  16        -0.00013549
  17        -0.00001465
  18         0.00000089
  19        -0.00032023
  20        -0.00003463
  21         0.00001701
  22        -0.00612939
  23        -0.00066293
  24        -0.00001916
  25         0.00690717
  26         0.00074703
  27         0.00007312
  28        -0.02635236
  29        -0.00285013
  30        -0.00033325
  31         0.12010622
  32         0.01299013
  33         0.00053569
  34        -0.19306707
  35        -0.02088121
  36        -0.00183941
  37         0.66293971
  38         0.07169993
  39         0.00373762
  40        -1.34707249
  41        -0.14569185
  42        -0.00000000
  43        -0.00000000
  44        -0.00000000
  45        -0.00000000
  46        -0.00000000
  47         0.00000000
  48         0.00000000
  49         0.00000000
  50         0.00000000
  51         0.00000000
  52        -0.00000000
  53        -0.00000000
  54        -0.00000000
  55        -0.00000000
  56        -0.00000000
  57         0.00000000
  58         0.00000000
  59         0.00000001
  60         0.00000001
  61         0.00000000
Sym=    13a  
Ene=     0.0385
Spin= Alpha
Occup=    0.00000
   1         0.00000064
   2         0.00000160
   3         0.00003499
   4         0.00000561
   5         0.00071246
   6        -0.00012433
   7         0.01046580
   8        -0.00787271
   9         0.03426240
  10        -0.17723584
  11         0.28116982
  12        -0.64838848
  13         1.83518990
  14        -1.93542645
  15        -0.00000000
  16         0.00000000
  17        -0.00000000
  18        -0.00000001
  19         0.00000001
  20        -0.00000001
  21        -0.00000003
  22         0.00000005
  23        -0.00000003
  24        -0.00000003
  25         0.00000003
  26        -0.00000003
  27        -0.00000005
  28         0.00000010
  29        -0.00000006
  30         0.00000017
  31        -0.00000045
  32         0.00000022
  33        -0.00000016
  34         0.00000038
  35        -0.00000019
  36         0.00000099
  37        -0.00000242
  38         0.00000120
  39        -0.00000121
  40         0.00000299
  41        -0.00000147
  42         0.00000000
  43        -0.00000000
  44         0.00000000
  45        -0.00000000
  46        -0.00000000
  47        -0.00000000
  48         0.00000000
  49        -0.00000000
  50        -0.00000000
  51         0.00000000
  52         0.00000000
  53        -0.00000000
  54         0.00000001
  55         0.00000000
  56        -0.00000000
  57         0.00000000
  58         0.00000001
  59        -0.00000007
  60         0.00000001
  61         0.00000000
Sym=    14a  
Ene=     0.1352
Spin= Alpha
Occup=    0.00000
   1        -0.00000000
   2        -0.00000000
   3        -0.00000000
   4        -0.00000000
   5         0.00000000
   6        -0.00000000
   7         0.00000000
   8        -0.00000003
   9         0.00000010
  10        -0.00000012
  11         0.00000041
  12        -0.00000134
  13         0.00000179
  14        -0.00000092
  15        -0.00000580
  16        -0.00000001
  17         0.00000014
  18        -0.00598452
  19        -0.00001084
  20         0.00014045
  21        -0.00072162
  22        -0.00000130
  23         0.00001695
  24        -0.05860731
  25        -0.00010616
  26         0.00137544
  27         0.16847031
  28         0.00030517
  29        -0.00395370
  30        -0.33821568
  31        -0.00061266
  32         0.00793730
  33         1.60545593
  34         0.00290813
  35        -0.03767729
  36        -2.56570000
  37        -0.00464748
  38         0.06021270
  39         1.01370270
  40         0.00183622
  41        -0.02378987
  42         0.00000000
  43        -0.00000000
  44        -0.00000000
  45        -0.00000000
  46         0.00000000
  47        -0.00000000
  48         0.00000000
  49         0.00000000
  50         0.00000000
  51        -0.00000001
  52         0.00000000
  53        -0.00000001
  54        -0.00000000
  55        -0.00000001
  56         0.00000001
  57        -0.00000002
  58         0.00000007
  59         0.00000000
  60         0.00000003
  61        -0.00000006
Sym=    15a  
Ene=     0.1352
Spin= Alpha
Occup=    0.00000
   1        -0.00000000
   2        -0.00000000
   3         0.00000000
   4        -0.00000000
   5         0.00000000
   6        -0.00000001
   7         0.00000000
   8        -0.00000004
   9         0.00000012
  10        -0.00000014
  11         0.00000051
  12        -0.00000168
  13         0.00000225
  14        -0.00000117
  15        -0.00000014
  16        -0.00000001
  17        -0.00000580
  18        -0.00014044
  19        -0.00000499
  20        -0.00598453
  21        -0.00001692
  22        -0.00000069
  23        -0.00072164
  24        -0.00137531
  25        -0.00004882
  26        -0.05860741
  27         0.00395350
  28         0.00013977
  29         0.16847052
  30        -0.00793694
  31        -0.00028043
  32        -0.33821608
  33         0.03767519
  34         0.00133259
  35         1.60545797
  36        -0.06020909
  37        -0.00213059
  38        -2.56570333
  39         0.02378852
  40         0.00084150
  41         1.01370394
  42        -0.00000000
  43        -0.00000000
  44         0.00000000
  45        -0.00000000
  46         0.00000000
  47         0.00000001
  48         0.00000000
  49        -0.00000001
  50         0.00000000
  51        -0.00000000
  52        -0.00000001
  53        -0.00000001
  54         0.00000001
  55        -0.00000000
  56         0.00000000
  57         0.00000008
  58         0.00000003
  59        -0.00000006
  60         0.00000000
  61        -0.00000000
Sym=    16a  
Ene=     0.1352
Spin= Alpha
Occup=    0.00000
   1         0.00000000
   2         0.00000000
   3        -0.00000000
   4         0.00000000
   5        -0.00000000
   6         0.00000001
   7        -0.00000000
   8         0.00000010
   9        -0.00000027
  10         0.00000029
  11        -0.00000100
  12         0.00000342
  13        -0.00000459
  14         0.00000235
  15         0.00000001
  16        -0.00000580
  17         0.00000000
  18         0.00001095
  19        -0.00598620
  20         0.00000470
  21         0.00000132
  22        -0.00072193
  23         0.00000048
  24         0.00010728
  25        -0.05862359
  26         0.00004604
  27        -0.00030836
  28         0.16851665
  29        -0.00013292
  30         0.00061905
  31        -0.33830802
  32         0.00026702
  33        -0.00293857
  34         1.60589665
  35        -0.00126605
  36         0.00469618
  37        -2.56640340
  38         0.00202232
  39        -0.00185545
  40         1.01397729
  41        -0.00079931
  42        -0.00000000
  43         0.00000000
  44        -0.00000000
  45        -0.00000000
  46        -0.00000000
  47         0.00000000
  48         0.00000000
  49         0.00000000
  50         0.00000001
  51         0.00000000
  52        -0.00000001
  53         0.00000000
  54        -0.00000001
  55        -0.00000001
  56        -0.00000001
  57         0.00000004
  58         0.00000000
  59         0.00000007
  60         0.00000006
  61         0.00000003
Sym=    17a  
Ene=     0.1841
Spin= Alpha
Occup=    0.00000
   1         0.00000000
   2         0.00000000
   3         0.00000000
   4         0.00000000
   5         0.00000000
   6        -0.00000000
   7         0.00000001
   8        -0.00000001
   9         0.00000008
  10        -0.00000016
  11         0.00000042
  12        -0.00000128
  13         0.00000159
  14        -0.00000058
  15        -0.00000000
  16         0.00000000
  17         0.00000000
  18        -0.00000000
  19         0.00000000
  20        -0.00000000
  21        -0.00000000
  22         0.00000000
  23         0.00000000
  24        -0.00000000
  25         0.00000000
  26        -0.00000000
  27         0.00000000
  28         0.00000000
  29         0.00000001
  30        -0.00000001
  31         0.00000000
  32        -0.00000002
  33         0.00000004
  34        -0.00000003
  35         0.00000008
  36        -0.00000005
  37         0.00000003
  38        -0.00000011
  39         0.00000002
  40        -0.00000001
  41         0.00000004
  42        -0.00100381
  43         0.00034529
  44        -0.00809123
  45         0.00702614
  46         0.00136610
  47         0.00635266
  48        -0.00218520
  49         0.05120550
  50        -0.04446509
  51        -0.00864539
  52        -0.01944071
  53         0.00668727
  54        -0.15670157
  55         0.13607425
  56         0.02645704
  57         0.10279076
  58        -0.03535824
  59         0.82854360
  60        -0.71947874
  61        -0.13988893
Sym=    18a  
Ene=     0.1841
Spin= Alpha
Occup=    0.00000
   1        -0.00000000
   2        -0.00000000
   3        -0.00000000
   4        -0.00000000
   5        -0.00000000
   6        -0.00000000
   7        -0.00000000
   8         0.00000000
   9        -0.00000000
  10         0.00000001
  11        -0.00000001
  12         0.00000004
  13        -0.00000005
  14         0.00000002
  15         0.00000000
  16         0.00000000
  17         0.00000000
  18         0.00000000
  19         0.00000000
  20         0.00000000
  21         0.00000000
  22         0.00000000
  23         0.00000000
  24         0.00000000
  25         0.00000000
  26         0.00000000
  27         0.00000001
  28        -0.00000000
  29        -0.00000000
  30        -0.00000001
  31         0.00000001
  32         0.00000001
  33         0.00000001
  34        -0.00000002
  35        -0.00000002
  36        -0.00000003
  37         0.00000003
  38         0.00000003
  39         0.00000001
  40        -0.00000001
  41        -0.00000001
  42         0.00112341
  43        -0.00629699
  44        -0.00012926
  45         0.00198197
  46        -0.00854217
  47        -0.00710954
  48         0.03985061
  49         0.00081800
  50        -0.01254297
  51         0.05405932
  52         0.02175697
  53        -0.12195278
  54        -0.00250327
  55         0.03838460
  56        -0.16543497
  57        -0.11503776
  58         0.64481292
  59         0.01323581
  60        -0.20295464
  61         0.87472056
Sym=    19a  
Ene=     0.1841
Spin= Alpha
Occup=    0.00000
   1        -0.00000000
   2        -0.00000000
   3        -0.00000000
   4        -0.00000000
   5        -0.00000000
   6        -0.00000000
   7        -0.00000000
   8         0.00000000
   9        -0.00000002
  10         0.00000003
  11        -0.00000007
  12         0.00000024
  13        -0.00000030
  14         0.00000011
  15        -0.00000000
  16        -0.00000000
  17        -0.00000000
  18         0.00000000
  19        -0.00000000
  20        -0.00000000
  21        -0.00000000
  22        -0.00000000
  23        -0.00000000
  24         0.00000000
  25        -0.00000001
  26        -0.00000001
  27        -0.00000000
  28         0.00000002
  29         0.00000001
  30         0.00000000
  31        -0.00000005
  32        -0.00000002
  33        -0.00000001
  34         0.00000018
  35         0.00000011
  36         0.00000002
  37        -0.00000023
  38        -0.00000012
  39        -0.00000001
  40         0.00000008
  41         0.00000004
  42         0.00885405
  43         0.00060640
  44         0.00346801
  45         0.00487947
  46         0.00179708
  47        -0.05603303
  48        -0.00383763
  49        -0.02194736
  50        -0.03087985
  51        -0.01137287
  52         0.17147502
  53         0.01174409
  54         0.06716439
  55         0.09450002
  56         0.03480380
  57        -0.90665669
  58        -0.06209570
  59        -0.35512488
  60        -0.49965924
  61        -0.18402157
Sym=    20a  
Ene=     0.1841
Spin= Alpha
Occup=    0.00000
   1         0.00000000
   2         0.00000000
   3         0.00000000
   4         0.00000000
   5         0.00000000
   6         0.00000000
   7         0.00000000
   8         0.00000000
   9         0.00000000
  10        -0.00000000
  11         0.00000000
  12        -0.00000001
  13         0.00000001
  14        -0.00000001
  15         0.00000000
  16         0.00000000
  17         0.00000000
  18         0.00000000
  19         0.00000000
  20         0.00000000
  21         0.00000000
  22         0.00000000
  23         0.00000000
  24         0.00000001
  25         0.00000000
  26         0.00000000
  27        -0.00000002
  28        -0.00000000
  29        -0.00000000
  30         0.00000005
  31         0.00000000
  32         0.00000000
  33        -0.00000021
  34        -0.00000000
  35        -0.00000001
  36         0.00000025
  37         0.00000000
  38         0.00000002
  39        -0.00000009
  40        -0.00000000
  41        -0.00000001
  42         0.00124430
  43        -0.00855358
  44        -0.00151882
  45        -0.00230902
  46         0.00595628
  47        -0.00787457
  48         0.05413154
  49         0.00961192
  50         0.01461266
  51        -0.03769444
  52         0.02409813
  53        -0.16565598
  54        -0.02941486
  55        -0.04471838
  56         0.11535437
  57        -0.12741642
  58         0.87588910
  59         0.15552807
  60         0.23644388
  61        -0.60992447
Sym=    21a  
Ene=     0.1841
Spin= Alpha
Occup=    0.00000
   1         0.00000000
   2         0.00000000
   3         0.00000000
   4         0.00000000
   5         0.00000000
   6         0.00000000
   7         0.00000001
   8        -0.00000001
   9         0.00000005
  10        -0.00000009
  11         0.00000024
  12        -0.00000073
  13         0.00000092
  14        -0.00000033
  15        -0.00000000
  16         0.00000000
  17        -0.00000000
  18        -0.00000000
  19         0.00000000
  20        -0.00000000
  21        -0.00000000
  22         0.00000000
  23        -0.00000000
  24         0.00000000
  25         0.00000001
  26        -0.00000001
  27        -0.00000000
  28        -0.00000001
  29         0.00000002
  30         0.00000000
  31         0.00000003
  32        -0.00000005
  33        -0.00000000
  34        -0.00000013
  35         0.00000019
  36         0.00000000
  37         0.00000016
  38        -0.00000022
  39        -0.00000000
  40        -0.00000005
  41         0.00000008
  42         0.00596788
  43         0.00212719
  44        -0.00616516
  45        -0.00594912
  46        -0.00207027
  47        -0.03776785
  48        -0.01346198
  49         0.03901633
  50         0.03764912
  51         0.01310176
  52         0.11557903
  53         0.04119700
  54        -0.11939967
  55        -0.11521568
  56        -0.04009465
  57        -0.61111233
  58        -0.21782494
  59         0.63131360
  60         0.60919119
  61         0.21199636
Sym=    22a  
Ene=     0.2539
Spin= Alpha
Occup=    0.00000
   1         0.00000079
   2         0.00002271
   3        -0.00000449
   4         0.00069105
   5        -0.00059441
   6         0.01161070
   7        -0.00770812
   8         0.11563430
   9        -0.28724577
  10         0.46420785
  11        -1.77382424
  12         4.45626860
  13        -4.43791999
  14         1.40502370
  15        -0.00000000
  16         0.00000000
  17        -0.00000000
  18        -0.00000001
  19         0.00000003
  20        -0.00000001
  21        -0.00000002
  22         0.00000004
  23        -0.00000003
  24        -0.00000010
  25         0.00000026
  26        -0.00000013
  27         0.00000012
  28        -0.00000031
  29         0.00000014
  30        -0.00000049
  31         0.00000123
  32        -0.00000058
  33         0.00000166
  34        -0.00000421
  35         0.00000197
  36        -0.00000138
  37         0.00000349
  38        -0.00000164
  39         0.00000042
  40        -0.00000105
  41         0.00000050
  42         0.00000000
  43         0.00000000
  44        -0.00000000
  45         0.00000000
  46         0.00000000
  47        -0.00000000
  48        -0.00000001
  49         0.00000004
  50        -0.00000001
  51        -0.00000000
  52         0.00000002
  53         0.00000002
  54        -0.00000013
  55         0.00000005
  56         0.00000000
  57        -0.00000003
  58        -0.00000006
  59         0.00000047
  60        -0.00000011
  61        -0.00000001
Sym=    23a  
Ene=     0.5116
Spin= Alpha
Occup=    0.00000
   1         0.00000000
   2        -0.00000000
   3         0.00000000
   4        -0.00000000
   5         0.00000000
   6        -0.00000000
   7         0.00000004
   8        -0.00000007
   9         0.00000018
  10        -0.00000099
  11         0.00000281
  12        -0.00000413
  13         0.00000289
  14        -0.00000062
  15         0.00008700
  16        -0.00166259
  17        -0.00102883
  18         0.00004999
  19        -0.00095536
  20        -0.00059116
  21         0.00399429
  22        -0.07632880
  23        -0.04723307
  24        -0.00606118
  25         0.11582607
  26         0.07167440
  27         0.02512002
  28        -0.48003034
  29        -0.29704817
  30        -0.11340290
  31         2.16707182
  32         1.34100693
  33         0.15762060
  34        -3.01204991
  35        -1.86388815
  36        -0.08469970
  37         1.61856901
  38         1.00158717
  39         0.02249520
  40        -0.42987370
  41        -0.26600931
  42         0.00000000
  43         0.00000000
  44        -0.00000000
  45         0.00000000
  46         0.00000000
  47        -0.00000000
  48        -0.00000000
  49         0.00000000
  50        -0.00000001
  51        -0.00000000
  52         0.00000006
  53         0.00000001
  54        -0.00000003
  55         0.00000007
  56         0.00000003
  57        -0.00000005
  58        -0.00000001
  59         0.00000000
  60        -0.00000005
  61        -0.00000002
Sym=    24a  
Ene=     0.5116
Spin= Alpha
Occup=    0.00000
   1        -0.00000000
   2         0.00000000
   3        -0.00000000
   4         0.00000000
   5        -0.00000000
   6         0.00000000
   7        -0.00000002
   8         0.00000004
   9        -0.00000008
  10         0.00000025
  11        -0.00000070
  12         0.00000108
  13        -0.00000077
  14         0.00000015
  15        -0.00191762
  16        -0.00027345
  17         0.00027974
  18        -0.00110193
  19        -0.00015714
  20         0.00016075
  21        -0.08803709
  22        -0.01255414
  23         0.01284264
  24         0.13359261
  25         0.01905037
  26        -0.01948817
  27        -0.55366389
  28        -0.07895268
  29         0.08076716
  30         2.49947919
  31         0.35642708
  32        -0.36461802
  33        -3.47406351
  34        -0.49540338
  35         0.50678805
  36         1.86683743
  37         0.26621214
  38        -0.27232976
  39        -0.49580874
  40        -0.07070288
  41         0.07232739
  42        -0.00000000
  43         0.00000000
  44         0.00000000
  45         0.00000000
  46        -0.00000000
  47         0.00000000
  48        -0.00000000
  49        -0.00000000
  50        -0.00000000
  51         0.00000001
  52        -0.00000001
  53         0.00000002
  54         0.00000002
  55         0.00000004
  56        -0.00000008
  57         0.00000001
  58        -0.00000003
  59        -0.00000001
  60        -0.00000003
  61         0.00000005
Sym=    25a  
Ene=     0.5116
Spin= Alpha
Occup=    0.00000
   1        -0.00000000
   2         0.00000000
   3        -0.00000000
   4         0.00000000
   5        -0.00000000
   6         0.00000000
   7        -0.00000006
   8         0.00000013
   9        -0.00000035
  10         0.00000156
  11        -0.00000423
  12         0.00000629
  13        -0.00000443
  14         0.00000091
  15        -0.00038139
  16         0.00099564
  17        -0.00164120
  18        -0.00021917
  19         0.00057217
  20        -0.00094312
  21        -0.01750960
  22         0.04570921
  23        -0.07534699
  24         0.02657006
  25        -0.06936175
  26         0.11433581
  27        -0.11011759
  28         0.28746416
  29        -0.47385597
  30         0.49711831
  31        -1.29773875
  32         2.13919040
  33        -0.69095189
  34         1.80374589
  35        -2.97329150
  36         0.37129278
  37        -0.96926873
  38         1.59774029
  39        -0.09861071
  40         0.25742656
  41        -0.42433980
  42        -0.00000000
  43         0.00000000
  44        -0.00000000
  45        -0.00000000
  46        -0.00000000
  47        -0.00000000
  48        -0.00000000
  49         0.00000001
  50         0.00000000
  51         0.00000000
  52        -0.00000001
  53         0.00000003
  54        -0.00000009
  55        -0.00000004
  56        -0.00000003
  57        -0.00000001
  58        -0.00000002
  59         0.00000006
  60         0.00000003
  61         0.00000002
Sym=    26a  
Ene=     0.6030
Spin= Alpha
Occup=    0.00000
   1         0.00000000
   2         0.00000000
   3         0.00000000
   4         0.00000000
   5         0.00000000
   6         0.00000000
   7        -0.00000000
   8         0.00000002
   9        -0.00000004
  10         0.00000013
  11        -0.00000041
  12         0.00000053
  13        -0.00000027
  14         0.00000007
  15        -0.00000000
  16        -0.00000000
  17        -0.00000000
  18         0.00000000
  19        -0.00000000
  20        -0.00000000
  21        -0.00000000
  22        -0.00000000
  23        -0.00000001
  24         0.00000000
  25         0.00000000
  26         0.00000001
  27        -0.00000001
  28        -0.00000002
  29        -0.00000004
  30         0.00000002
  31         0.00000008
  32         0.00000015
  33        -0.00000003
  34        -0.00000009
  35        -0.00000017
  36         0.00000001
  37         0.00000005
  38         0.00000009
  39        -0.00000000
  40        -0.00000001
  41        -0.00000002
  42         0.00948590
  43        -0.00268492
  44         0.03620299
  45        -0.03026874
  46        -0.00664696
  47        -0.03114269
  48         0.00881473
  49        -0.11885625
  50         0.09937382
  51         0.02182229
  52         0.27179565
  53        -0.07692992
  54         1.03730951
  55        -0.86727802
  56        -0.19045252
  57        -0.14156967
  58         0.04007034
  59        -0.54030138
  60         0.45173741
  61         0.09920063
Sym=    27a  
Ene=     0.6030
Spin= Alpha
Occup=    0.00000
   1         0.00000000
   2         0.00000000
   3         0.00000000
   4         0.00000000
   5         0.00000000
   6         0.00000000
   7         0.00000000
   8         0.00000000
   9        -0.00000000
  10         0.00000001
  11        -0.00000003
  12         0.00000004
  13        -0.00000002
  14         0.00000001
  15        -0.00000000
  16         0.00000000
  17         0.00000000
  18        -0.00000000
  19        -0.00000000
  20         0.00000000
  21        -0.00000001
  22         0.00000000
  23         0.00000000
  24         0.00000001
  25        -0.00000000
  26        -0.00000000
  27        -0.00000003
  28         0.00000000
  29         0.00000001
  30         0.00000013
  31        -0.00000001
  32        -0.00000003
  33        -0.00000015
  34         0.00000001
  35         0.00000003
  36         0.00000008
  37        -0.00000001
  38        -0.00000002
  39        -0.00000002
  40         0.00000000
  41         0.00000000
  42        -0.00275857
  43         0.03082824
  44         0.00252990
  45        -0.00858227
  46         0.03647163
  47         0.00905654
  48        -0.10121070
  49        -0.00830578
  50         0.02817602
  51        -0.11973823
  52        -0.07904029
  53         0.88330921
  54         0.07248808
  55        -0.24590425
  56         1.04500693
  57         0.04116956
  58        -0.46008755
  59        -0.03775672
  60         0.12808367
  61        -0.54431072
Sym=    28a  
Ene=     0.6030
Spin= Alpha
Occup=    0.00000
   1        -0.00000000
   2        -0.00000000
   3        -0.00000000
   4        -0.00000000
   5        -0.00000000
   6        -0.00000000
   7        -0.00000000
   8        -0.00000001
   9         0.00000001
  10        -0.00000004
  11         0.00000012
  12        -0.00000017
  13         0.00000009
  14        -0.00000002
  15        -0.00000000
  16         0.00000000
  17        -0.00000000
  18        -0.00000000
  19         0.00000000
  20        -0.00000000
  21        -0.00000000
  22         0.00000001
  23        -0.00000000
  24         0.00000000
  25        -0.00000001
  26        -0.00000000
  27        -0.00000001
  28         0.00000005
  29        -0.00000000
  30         0.00000003
  31        -0.00000022
  32        -0.00000001
  33        -0.00000003
  34         0.00000025
  35         0.00000001
  36         0.00000002
  37        -0.00000013
  38        -0.00000000
  39        -0.00000000
  40         0.00000003
  41         0.00000000
  42         0.04124506
  43         0.00136439
  44         0.00970320
  45         0.02294081
  46         0.00669156
  47        -0.13540963
  48        -0.00447935
  49        -0.03185608
  50        -0.07531584
  51        -0.02196872
  52         1.18177799
  53         0.03909319
  54         0.27802173
  55         0.65731368
  56         0.19173047
  57        -0.61555040
  58        -0.02036239
  59        -0.14481264
  60        -0.34237370
  61        -0.09986628
Sym=    29a  
Ene=     0.6030
Spin= Alpha
Occup=    0.00000
   1         0.00000000
   2         0.00000000
   3         0.00000000
   4         0.00000000
   5         0.00000000
   6         0.00000000
   7         0.00000000
   8         0.00000000
   9        -0.00000000
  10         0.00000000
  11        -0.00000001
  12         0.00000001
  13        -0.00000001
  14         0.00000000
  15        -0.00000000
  16        -0.00000000
  17        -0.00000000
  18        -0.00000000
  19        -0.00000000
  20         0.00000000
  21        -0.00000001
  22        -0.00000000
  23        -0.00000000
  24         0.00000001
  25         0.00000000
  26         0.00000000
  27        -0.00000004
  28        -0.00000000
  29        -0.00000000
  30         0.00000017
  31         0.00000001
  32         0.00000000
  33        -0.00000019
  34        -0.00000001
  35        -0.00000000
  36         0.00000011
  37         0.00000001
  38         0.00000000
  39        -0.00000003
  40        -0.00000000
  41        -0.00000000
  42         0.00583475
  43        -0.03577198
  44        -0.00951785
  45        -0.01261234
  46         0.02837053
  47        -0.01915578
  48         0.11744122
  49         0.03124760
  50         0.04140695
  51        -0.09314189
  52         0.16718070
  53        -1.02495995
  54        -0.27271119
  55        -0.36137621
  56         0.81288928
  57        -0.08707909
  58         0.53386889
  59         0.14204655
  60         0.18822933
  61        -0.42340806
Sym=    30a  
Ene=     0.6030
Spin= Alpha
Occup=    0.00000
   1         0.00000000
   2         0.00000000
   3         0.00000000
   4         0.00000000
   5         0.00000000
   6         0.00000000
   7        -0.00000000
   8         0.00000001
   9        -0.00000002
  10         0.00000005
  11        -0.00000017
  12         0.00000021
  13        -0.00000011
  14         0.00000003
  15        -0.00000000
  16         0.00000000
  17        -0.00000000
  18        -0.00000000
  19        -0.00000000
  20        -0.00000000
  21        -0.00000000
  22         0.00000000
  23        -0.00000001
  24         0.00000000
  25        -0.00000001
  26         0.00000001
  27        -0.00000000
  28         0.00000002
  29        -0.00000004
  30         0.00000001
  31        -0.00000010
  32         0.00000017
  33        -0.00000001
  34         0.00000011
  35        -0.00000019
  36         0.00000001
  37        -0.00000006
  38         0.00000010
  39        -0.00000000
  40         0.00000002
  41        -0.00000003
  42        -0.02313946
  43        -0.01136401
  44         0.02943515
  45         0.02632532
  46         0.01200834
  47         0.07596804
  48         0.03730864
  49        -0.09663709
  50        -0.08642735
  51        -0.03942399
  52        -0.66300572
  53        -0.32560849
  54         0.84339340
  55         0.75428862
  56         0.34407008
  57         0.34533850
  58         0.16959906
  59        -0.43929668
  60        -0.39288484
  61        -0.17921512
Sym=    31a  
Ene=     1.0909
Spin= Alpha
Occup=    0.00000
   1        -0.00000794
   2         0.00000532
   3        -0.00049030
   4         0.00076175
   5        -0.01062236
   6         0.01605208
   7        -0.15705337
   8         0.25830872
   9        -0.95048521
  10         3.84813089
  11        -6.94278737
  12         6.04212444
  13        -2.73254163
  14         0.67627051
  15         0.00000000
  16        -0.00000001
  17         0.00000000
  18        -0.00000000
  19         0.00000001
  20        -0.00000000
  21         0.00000007
  22        -0.00000022
  23         0.00000010
  24        -0.00000011
  25         0.00000029
  26        -0.00000012
  27         0.00000090
  28        -0.00000268
  29         0.00000114
  30        -0.00000168
  31         0.00000490
  32        -0.00000204
  33         0.00000114
  34        -0.00000336
  35         0.00000142
  36        -0.00000053
  37         0.00000155
  38        -0.00000065
  39         0.00000014
  40        -0.00000040
  41         0.00000017
  42         0.00000000
  43         0.00000000
  44        -0.00000001
  45         0.00000000
  46         0.00000000
  47         0.00000000
  48         0.00000001
  49        -0.00000005
  50         0.00000001
  51         0.00000000
  52         0.00000002
  53         0.00000000
  54        -0.00000003
  55         0.00000004
  56         0.00000000
  57        -0.00000001
  58         0.00000001
  59        -0.00000005
  60        -0.00000001
  61         0.00000000
Sym=    32a  
Ene=     1.6734
Spin= Alpha
Occup=    0.00000
   1        -0.00000000
   2         0.00000000
   3        -0.00000000
   4         0.00000000
   5        -0.00000002
   6         0.00000007
   7        -0.00000024
   8         0.00000066
   9        -0.00000225
  10         0.00000573
  11        -0.00000787
  12         0.00000551
  13        -0.00000208
  14         0.00000062
  15        -0.00000625
  16         0.00122299
  17         0.00019937
  18         0.00033799
  19        -0.06611679
  20        -0.01077768
  21        -0.00029627
  22         0.05795564
  23         0.00944751
  24         0.00480419
  25        -0.93978161
  26        -0.15319502
  27        -0.01614863
  28         3.15895818
  29         0.51494433
  30         0.01804462
  31        -3.52984002
  32        -0.57540319
  33        -0.01082366
  34         2.11729312
  35         0.34514285
  36         0.00480167
  37        -0.93928640
  38        -0.15311472
  39        -0.00122325
  40         0.23928650
  41         0.03900662
  42        -0.00000001
  43        -0.00000000
  44        -0.00000000
  45        -0.00000001
  46        -0.00000000
  47         0.00000007
  48         0.00000001
  49         0.00000001
  50         0.00000012
  51         0.00000004
  52        -0.00000006
  53        -0.00000000
  54        -0.00000001
  55        -0.00000010
  56        -0.00000003
  57         0.00000002
  58         0.00000000
  59        -0.00000000
  60         0.00000003
  61         0.00000001
Sym=    33a  
Ene=     1.6734
Spin= Alpha
Occup=    0.00000
   1         0.00000000
   2        -0.00000000
   3         0.00000000
   4        -0.00000000
   5         0.00000001
   6        -0.00000002
   7         0.00000008
   8        -0.00000018
   9         0.00000055
  10        -0.00000153
  11         0.00000223
  12        -0.00000159
  13         0.00000058
  14        -0.00000018
  15        -0.00071869
  16        -0.00016598
  17         0.00099569
  18         0.03885384
  19         0.00897339
  20        -0.05382911
  21        -0.03405771
  22        -0.00786556
  23         0.04718440
  24         0.55226715
  25         0.12754615
  26        -0.76512502
  27        -1.85637496
  28        -0.42873128
  29         2.57186953
  30         2.07432331
  31         0.47906567
  32        -2.87382063
  33        -1.24423426
  34        -0.28735589
  35         1.72379394
  36         0.55197485
  37         0.12747828
  38        -0.76472002
  39        -0.14061840
  40        -0.03247565
  41         0.19481632
  42        -0.00000000
  43        -0.00000000
  44         0.00000001
  45         0.00000000
  46        -0.00000001
  47         0.00000003
  48         0.00000001
  49        -0.00000010
  50        -0.00000004
  51         0.00000006
  52        -0.00000002
  53        -0.00000001
  54         0.00000008
  55         0.00000003
  56        -0.00000005
  57         0.00000000
  58         0.00000001
  59        -0.00000003
  60        -0.00000001
  61         0.00000002
Sym=    34a  
Ene=     1.6734
Spin= Alpha
Occup=    0.00000
   1         0.00000000
   2        -0.00000000
   3         0.00000000
   4        -0.00000000
   5         0.00000001
   6        -0.00000003
   7         0.00000013
   8        -0.00000032
   9         0.00000124
  10        -0.00000346
  11         0.00000493
  12        -0.00000342
  13         0.00000125
  14        -0.00000042
  15         0.00100941
  16        -0.00011060
  17         0.00071015
  18        -0.05457088
  19         0.00597945
  20        -0.03839248
  21         0.04783458
  22        -0.00524124
  23         0.03365325
  24        -0.77566833
  25         0.08499080
  26        -0.54570912
  27         2.60730952
  28        -0.28568653
  29         1.83433130
  30        -2.91342125
  31         0.31922699
  32        -2.04969126
  33         1.74754735
  34        -0.19148052
  35         1.22945914
  36        -0.77525762
  37         0.08494556
  38        -0.54542014
  39         0.19750085
  40        -0.02164026
  41         0.13894858
  42         0.00000000
  43        -0.00000000
  44         0.00000001
  45        -0.00000000
  46         0.00000001
  47        -0.00000000
  48         0.00000005
  49        -0.00000007
  50         0.00000002
  51        -0.00000010
  52         0.00000000
  53        -0.00000004
  54         0.00000006
  55        -0.00000002
  56         0.00000008
  57        -0.00000001
  58         0.00000001
  59        -0.00000002
  60         0.00000000
  61        -0.00000003
Sym=    35a  
Ene=     1.7499
Spin= Alpha
Occup=    0.00000
   1        -0.00000000
   2        -0.00000000
   3        -0.00000000
   4        -0.00000000
   5        -0.00000000
   6         0.00000000
   7        -0.00000001
   8         0.00000002
   9        -0.00000009
  10         0.00000029
  11        -0.00000038
  12         0.00000024
  13        -0.00000012
  14         0.00000003
  15         0.00000000
  16         0.00000000
  17         0.00000000
  18        -0.00000000
  19        -0.00000000
  20        -0.00000000
  21         0.00000000
  22         0.00000000
  23         0.00000000
  24        -0.00000001
  25        -0.00000003
  26        -0.00000005
  27         0.00000003
  28         0.00000010
  29         0.00000018
  30        -0.00000003
  31        -0.00000010
  32        -0.00000019
  33         0.00000002
  34         0.00000006
  35         0.00000012
  36        -0.00000001
  37        -0.00000003
  38        -0.00000005
  39         0.00000000
  40         0.00000001
  41         0.00000001
  42        -0.01499998
  43         0.00455064
  44        -0.08692505
  45         0.07382713
  46         0.01413147
  47         0.18935403
  48        -0.05744549
  49         1.09730839
  50        -0.93196530
  51        -0.17839021
  52        -0.14066612
  53         0.04267474
  54        -0.81516152
  55         0.69233248
  56         0.13252139
  57         0.04879340
  58        -0.01480275
  59         0.28275821
  60        -0.24015203
  61        -0.04596820
Sym=    36a  
Ene=     1.7499
Spin= Alpha
Occup=    0.00000
   1         0.00000000
   2         0.00000000
   3         0.00000000
   4         0.00000000
   5         0.00000000
   6         0.00000000
   7         0.00000000
   8        -0.00000000
   9         0.00000000
  10        -0.00000000
  11         0.00000000
  12        -0.00000000
  13         0.00000000
  14        -0.00000000
  15         0.00000000
  16        -0.00000000
  17        -0.00000000
  18        -0.00000000
  19         0.00000000
  20         0.00000000
  21         0.00000000
  22        -0.00000000
  23        -0.00000000
  24        -0.00000005
  25         0.00000000
  26         0.00000001
  27         0.00000016
  28        -0.00000001
  29        -0.00000004
  30        -0.00000017
  31         0.00000001
  32         0.00000004
  33         0.00000011
  34        -0.00000001
  35        -0.00000002
  36        -0.00000005
  37         0.00000000
  38         0.00000001
  39         0.00000001
  40        -0.00000000
  41        -0.00000000
  42         0.00931669
  43        -0.06929727
  44        -0.00287360
  45         0.02006343
  46        -0.09028901
  47        -0.11761032
  48         0.87478202
  49         0.03627520
  50        -0.25327302
  51         1.13977373
  52         0.08736961
  53        -0.64985253
  54        -0.02694789
  55         0.18814986
  56        -0.84670790
  57        -0.03030623
  58         0.22541685
  59         0.00934752
  60        -0.06526427
  61         0.29370083
Sym=    37a  
Ene=     1.7499
Spin= Alpha
Occup=    0.00000
   1        -0.00000000
   2        -0.00000000
   3        -0.00000000
   4        -0.00000000
   5        -0.00000000
   6        -0.00000000
   7        -0.00000000
   8         0.00000000
   9        -0.00000001
  10         0.00000003
  11        -0.00000004
  12         0.00000003
  13        -0.00000001
  14         0.00000000
  15         0.00000000
  16        -0.00000000
  17        -0.00000000
  18        -0.00000000
  19         0.00000001
  20        -0.00000000
  21         0.00000000
  22        -0.00000001
  23        -0.00000000
  24        -0.00000001
  25         0.00000008
  26        -0.00000000
  27         0.00000004
  28        -0.00000027
  29         0.00000000
  30        -0.00000004
  31         0.00000028
  32        -0.00000000
  33         0.00000002
  34        -0.00000018
  35        -0.00000000
  36        -0.00000001
  37         0.00000008
  38         0.00000000
  39         0.00000000
  40        -0.00000002
  41        -0.00000000
  42        -0.09583064
  43        -0.00432462
  44        -0.03228091
  45        -0.05386028
  46        -0.01751044
  47         1.20972911
  48         0.05459231
  49         0.40750180
  50         0.67991146
  51         0.22104499
  52        -0.89867591
  53        -0.04055519
  54        -0.30272236
  55        -0.50508832
  56        -0.16420851
  57         0.31172717
  58         0.01406754
  59         0.10500647
  60         0.17520193
  61         0.05695964
Sym=    38a  
Ene=     1.7499
Spin= Alpha
Occup=    0.00000
   1        -0.00000000
   2        -0.00000000
   3        -0.00000000
   4         0.00000000
   5        -0.00000000
   6         0.00000000
   7        -0.00000000
   8         0.00000000
   9        -0.00000000
  10         0.00000001
  11        -0.00000001
  12         0.00000001
  13        -0.00000000
  14         0.00000000
  15         0.00000000
  16        -0.00000000
  17         0.00000000
  18        -0.00000000
  19         0.00000000
  20        -0.00000000
  21         0.00000001
  22        -0.00000000
  23         0.00000000
  24        -0.00000006
  25         0.00000000
  26        -0.00000001
  27         0.00000022
  28        -0.00000001
  29         0.00000003
  30        -0.00000023
  31         0.00000001
  32        -0.00000004
  33         0.00000014
  34        -0.00000000
  35         0.00000002
  36        -0.00000006
  37         0.00000000
  38        -0.00000001
  39         0.00000002
  40        -0.00000000
  41         0.00000000
  42        -0.00716336
  43         0.09152441
  44         0.01206871
  45         0.01992629
  46        -0.06694083
  47         0.09042751
  48        -1.15536891
  49        -0.15235074
  50        -0.25154179
  51         0.84503524
  52        -0.06717622
  53         0.85829315
  54         0.11317736
  55         0.18686377
  56        -0.62775443
  57         0.02330167
  58        -0.29771945
  59        -0.03925827
  60        -0.06481816
  61         0.21775160
Sym=    39a  
Ene=     1.7499
Spin= Alpha
Occup=    0.00000
   1        -0.00000000
   2        -0.00000000
   3        -0.00000000
   4        -0.00000000
   5        -0.00000000
   6         0.00000000
   7        -0.00000001
   8         0.00000001
   9        -0.00000005
  10         0.00000017
  11        -0.00000021
  12         0.00000014
  13        -0.00000007
  14         0.00000002
  15        -0.00000000
  16        -0.00000000
  17         0.00000000
  18         0.00000000
  19         0.00000000
  20        -0.00000000
  21        -0.00000000
  22        -0.00000000
  23         0.00000000
  24         0.00000001
  25         0.00000003
  26        -0.00000006
  27        -0.00000003
  28        -0.00000012
  29         0.00000020
  30         0.00000003
  31         0.00000012
  32        -0.00000021
  33        -0.00000002
  34        -0.00000008
  35         0.00000013
  36         0.00000001
  37         0.00000003
  38        -0.00000006
  39        -0.00000000
  40        -0.00000001
  41         0.00000001
  42         0.06249153
  43         0.01528323
  44        -0.06855569
  45        -0.06558081
  46        -0.01767265
  47        -0.78886896
  48        -0.19292958
  49         0.86542068
  50         0.82786692
  51         0.22309274
  52         0.58602999
  53         0.14332231
  54        -0.64289824
  55        -0.61500054
  56        -0.16572972
  57        -0.20327848
  58        -0.04971476
  59         0.22300459
  60         0.21332760
  61         0.05748731
Sym=    40a  
Ene=     4.2656
Spin= Alpha
Occup=    0.00000
   1        -0.00000120
   2         0.00028194
   3        -0.00072229
   4         0.00943122
   5        -0.02193925
   6         0.16712610
   7        -0.33593850
   8         2.14306429
   9        -6.15264038
  10         8.44411578
  11        -6.25088661
  12         3.17318709
  13        -1.40693309
  14         0.32722936
  15         0.00000001
  16        -0.00000002
  17         0.00000000
  18        -0.00000003
  19         0.00000010
  20        -0.00000002
  21         0.00000033
  22        -0.00000109
  23         0.00000030
  24        -0.00000123
  25         0.00000406
  26        -0.00000108
  27         0.00000139
  28        -0.00000453
  29         0.00000124
  30        -0.00000080
  31         0.00000273
  32        -0.00000067
  33         0.00000054
  34        -0.00000174
  35         0.00000049
  36        -0.00000022
  37         0.00000071
  38        -0.00000019
  39         0.00000005
  40        -0.00000018
  41         0.00000005
  42         0.00000000
  43        -0.00000001
  44         0.00000010
  45        -0.00000001
  46        -0.00000000
  47         0.00000000
  48         0.00000001
  49        -0.00000011
  50         0.00000002
  51         0.00000000
  52        -0.00000001
  53        -0.00000001
  54         0.00000008
  55        -0.00000003
  56        -0.00000000
  57         0.00000000
  58        -0.00000000
  59         0.00000001
  60         0.00000000
  61        -0.00000000
Sym=    41a  
Ene=     5.1856
Spin= Alpha
Occup=    0.00000
   1        -0.00000000
   2        -0.00000000
   3         0.00000000
   4        -0.00000000
   5         0.00000000
   6        -0.00000001
   7         0.00000001
   8        -0.00000009
   9         0.00000023
  10        -0.00000027
  11         0.00000019
  12        -0.00000010
  13         0.00000004
  14        -0.00000001
  15         0.00000000
  16         0.00000000
  17        -0.00000000
  18        -0.00000000
  19        -0.00000000
  20         0.00000000
  21         0.00000000
  22         0.00000001
  23        -0.00000001
  24        -0.00000001
  25        -0.00000002
  26         0.00000004
  27         0.00000001
  28         0.00000002
  29        -0.00000004
  30        -0.00000001
  31        -0.00000001
  32         0.00000003
  33         0.00000000
  34         0.00000001
  35        -0.00000002
  36        -0.00000000
  37        -0.00000000
  38         0.00000001
  39         0.00000000
  40         0.00000000
  41        -0.00000000
  42        -0.91059584
  43        -0.10736231
  44         0.67601471
  45         0.78047168
  46         0.11879966
  47         0.74638650
  48         0.08800148
  49        -0.55410779
  50        -0.63972786
  51        -0.09737631
  52        -0.35566340
  53        -0.04193391
  54         0.26403996
  55         0.30483910
  56         0.04640115
  57         0.11671093
  58         0.01376061
  59        -0.08664470
  60        -0.10003293
  61        -0.01522653
Sym=    42a  
Ene=     5.1856
Spin= Alpha
Occup=    0.00000
   1         0.00000000
   2         0.00000000
   3        -0.00000000
   4         0.00000000
   5        -0.00000000
   6         0.00000000
   7        -0.00000000
   8         0.00000001
   9        -0.00000003
  10         0.00000004
  11        -0.00000003
  12         0.00000001
  13        -0.00000001
  14         0.00000000
  15         0.00000000
  16        -0.00000000
  17         0.00000000
  18        -0.00000000
  19         0.00000000
  20        -0.00000000
  21         0.00000001
  22        -0.00000000
  23         0.00000000
  24        -0.00000004
  25         0.00000000
  26        -0.00000001
  27         0.00000005
  28        -0.00000000
  29         0.00000001
  30        -0.00000003
  31         0.00000000
  32        -0.00000001
  33         0.00000002
  34        -0.00000000
  35         0.00000000
  36        -0.00000001
  37         0.00000000
  38        -0.00000000
  39         0.00000000
  40        -0.00000000
  41         0.00000000
  42        -0.04923057
  43         1.19941462
  44         0.07109671
  45         0.14840553
  46        -0.67294777
  47         0.04035274
  48        -0.98312209
  49        -0.05827572
  50        -0.12164330
  51         0.55159393
  52        -0.01922863
  53         0.46847116
  54         0.02776918
  55         0.05796470
  56        -0.26284207
  57         0.00630987
  58        -0.15372879
  59        -0.00911245
  60        -0.01902111
  61         0.08625161
Sym=    43a  
Ene=     5.1856
Spin= Alpha
Occup=    0.00000
   1        -0.00000000
   2        -0.00000000
   3         0.00000000
   4        -0.00000000
   5         0.00000000
   6        -0.00000001
   7         0.00000001
   8        -0.00000010
   9         0.00000024
  10        -0.00000029
  11         0.00000020
  12        -0.00000010
  13         0.00000004
  14        -0.00000001
  15        -0.00000000
  16         0.00000000
  17        -0.00000000
  18         0.00000000
  19        -0.00000000
  20         0.00000000
  21        -0.00000000
  22         0.00000002
  23        -0.00000001
  24         0.00000001
  25        -0.00000007
  26         0.00000003
  27        -0.00000001
  28         0.00000007
  29        -0.00000002
  30         0.00000001
  31        -0.00000004
  32         0.00000002
  33        -0.00000001
  34         0.00000002
  35        -0.00000001
  36         0.00000000
  37        -0.00000001
  38         0.00000000
  39        -0.00000000
  40         0.00000000
  41        -0.00000000
  42         1.01570178
  43         0.10396225
  44         0.69124020
  45         0.55401237
  46         0.30619562
  47        -0.83253850
  48        -0.08521455
  49        -0.56658765
  50        -0.45410635
  51        -0.25097883
  52         0.39671601
  53         0.04060590
  54         0.26998678
  55         0.21638790
  56         0.11959485
  57        -0.13018234
  58        -0.01332482
  59        -0.08859615
  60        -0.07100768
  61        -0.03924505
Sym=    44a  
Ene=     5.1856
Spin= Alpha
Occup=    0.00000
   1         0.00000000
   2         0.00000000
   3        -0.00000000
   4         0.00000000
   5        -0.00000000
   6         0.00000000
   7        -0.00000000
   8         0.00000003
   9        -0.00000007
  10         0.00000008
  11        -0.00000006
  12         0.00000003
  13        -0.00000001
  14         0.00000000
  15        -0.00000000
  16        -0.00000000
  17         0.00000000
  18         0.00000000
  19         0.00000000
  20        -0.00000000
  21        -0.00000002
  22        -0.00000000
  23         0.00000000
  24         0.00000005
  25         0.00000001
  26        -0.00000001
  27        -0.00000005
  28        -0.00000001
  29         0.00000001
  30         0.00000003
  31         0.00000000
  32        -0.00000001
  33        -0.00000002
  34        -0.00000000
  35         0.00000000
  36         0.00000001
  37         0.00000000
  38        -0.00000000
  39        -0.00000000
  40        -0.00000000
  41         0.00000000
  42        -0.21566494
  43         0.67801136
  44        -0.09842611
  45        -0.24948772
  46         1.15879857
  47         0.17677370
  48        -0.55574439
  49         0.08067676
  50         0.20449716
  51        -0.94983040
  52        -0.08423509
  53         0.26481982
  54        -0.03844358
  55        -0.09744570
  56         0.45260721
  57         0.02764174
  58        -0.08690061
  59         0.01261526
  60         0.03197680
  61        -0.14852303
Sym=    45a  
Ene=     5.1856
Spin= Alpha
Occup=    0.00000
   1        -0.00000000
   2        -0.00000000
   3         0.00000000
   4        -0.00000000
   5         0.00000000
   6        -0.00000001
   7         0.00000002
   8        -0.00000016
   9         0.00000040
  10        -0.00000047
  11         0.00000032
  12        -0.00000017
  13         0.00000007
  14        -0.00000002
  15        -0.00000000
  16        -0.00000000
  17        -0.00000000
  18         0.00000000
  19         0.00000000
  20         0.00000000
  21        -0.00000000
  22        -0.00000002
  23        -0.00000002
  24         0.00000000
  25         0.00000005
  26         0.00000005
  27        -0.00000000
  28        -0.00000005
  29        -0.00000005
  30         0.00000000
  31         0.00000003
  32         0.00000003
  33        -0.00000000
  34        -0.00000002
  35        -0.00000002
  36         0.00000000
  37         0.00000001
  38         0.00000001
  39        -0.00000000
  40        -0.00000000
  41        -0.00000000
  42        -0.10576782
  43        -0.01808524
  44         0.98559900
  45        -0.95949084
  46        -0.13196505
  47         0.08669452
  48         0.01482390
  49        -0.80786421
  50         0.78646418
  51         0.10816756
  52        -0.04131113
  53        -0.00706379
  54         0.38495837
  55        -0.37476096
  56        -0.05154333
  57         0.01355624
  58         0.00231798
  59        -0.12632407
  60         0.12297779
  61         0.01691394
Sym=    46a  
Ene=     5.6385
Spin= Alpha
Occup=    0.00000
   1         0.00000000
   2         0.00000000
   3        -0.00000000
   4         0.00000001
   5        -0.00000002
   6         0.00000015
   7        -0.00000035
   8         0.00000272
   9        -0.00000722
  10         0.00000867
  11        -0.00000526
  12         0.00000249
  13        -0.00000135
  14         0.00000021
  15        -0.00225528
  16         0.01767514
  17        -0.01781166
  18         0.00686613
  19        -0.05381131
  20         0.05422699
  21        -0.13259699
  22         1.03919196
  23        -1.04721827
  24         0.30583779
  25        -2.39691908
  26         2.41543136
  27        -0.27886790
  28         2.18555105
  29        -2.20242984
  30         0.17224693
  31        -1.34993829
  32         1.36036373
  33        -0.09893410
  34         0.77536880
  35        -0.78135709
  36         0.04145048
  37        -0.32485689
  38         0.32736566
  39        -0.01080749
  40         0.08470155
  41        -0.08535491
  42        -0.00000001
  43         0.00000001
  44        -0.00000002
  45        -0.00000002
  46        -0.00000001
  47         0.00000001
  48        -0.00000000
  49         0.00000002
  50         0.00000002
  51         0.00000001
  52        -0.00000000
  53         0.00000000
  54        -0.00000001
  55        -0.00000000
  56        -0.00000000
  57        -0.00000000
  58        -0.00000000
  59         0.00000001
  60         0.00000000
  61         0.00000000
Sym=    47a  
Ene=     5.6385
Spin= Alpha
Occup=    0.00000
   1         0.00000000
   2        -0.00000000
   3         0.00000000
   4        -0.00000000
   5         0.00000001
   6        -0.00000005
   7         0.00000016
   8        -0.00000072
   9         0.00000160
  10        -0.00000179
  11         0.00000109
  12        -0.00000055
  13         0.00000029
  14        -0.00000003
  15         0.02499222
  16         0.00318460
  17        -0.00000428
  18        -0.07608818
  19        -0.00969541
  20         0.00001304
  21         1.46939268
  22         0.18723519
  23        -0.00025179
  24        -3.38918347
  25        -0.43186179
  26         0.00058077
  27         3.09031252
  28         0.39377878
  29        -0.00052955
  30        -1.90877687
  31        -0.24322324
  32         0.00032709
  33         1.09635088
  34         0.13970095
  35        -0.00018787
  36        -0.45933858
  37        -0.05853059
  38         0.00007871
  39         0.11976463
  40         0.01526098
  41        -0.00002052
  42         0.00000000
  43        -0.00000000
  44        -0.00000000
  45        -0.00000001
  46         0.00000003
  47        -0.00000000
  48         0.00000000
  49         0.00000000
  50         0.00000001
  51        -0.00000002
  52         0.00000000
  53        -0.00000000
  54        -0.00000000
  55        -0.00000000
  56         0.00000001
  57        -0.00000000
  58         0.00000001
  59         0.00000000
  60         0.00000000
  61        -0.00000000
Sym=    48a  
Ene=     5.6385
Spin= Alpha
Occup=    0.00000
   1        -0.00000000
   2         0.00000000
   3        -0.00000000
   4         0.00000001
   5        -0.00000001
   6         0.00000010
   7        -0.00000022
   8         0.00000158
   9        -0.00000425
  10         0.00000529
  11        -0.00000342
  12         0.00000163
  13        -0.00000082
  14         0.00000016
  15        -0.00224842
  16         0.01766920
  17         0.01781846
  18         0.00684528
  19        -0.05379356
  20        -0.05424807
  21        -0.13219356
  22         1.03884306
  23         1.04761934
  24         0.30490681
  25        -2.39611075
  26        -2.41635286
  27        -0.27801894
  28         2.18481337
  29         2.20326944
  30         0.17172238
  31        -1.34948126
  32        -1.36088094
  33        -0.09863276
  34         0.77510586
  35         0.78165372
  36         0.04132418
  37        -0.32474637
  38        -0.32748958
  39        -0.01077458
  40         0.08467288
  41         0.08538736
  42        -0.00000002
  43        -0.00000000
  44         0.00000002
  45        -0.00000002
  46        -0.00000001
  47         0.00000001
  48         0.00000000
  49        -0.00000001
  50         0.00000002
  51         0.00000001
  52        -0.00000001
  53        -0.00000000
  54         0.00000000
  55        -0.00000000
  56        -0.00000000
  57         0.00000001
  58         0.00000000
  59         0.00000000
  60         0.00000000
  61         0.00000000
Sym=    49a  
Ene=    16.6150
Spin= Alpha
Occup=    0.00000
   1         0.00010309
   2        -0.00044939
   3         0.00727779
   4        -0.02284421
   5         0.17312033
   6        -0.48397190
   7         3.20095131
   8        -7.03649517
   9         7.58706388
  10        -5.10345514
  11         2.95535547
  12        -1.56627059
  13         0.60072430
  14        -0.15181649
  15        -0.00000001
  16         0.00000002
  17        -0.00000001
  18         0.00000027
  19        -0.00000035
  20         0.00000013
  21        -0.00000073
  22         0.00000089
  23        -0.00000034
  24         0.00000062
  25        -0.00000079
  26         0.00000030
  27        -0.00000037
  28         0.00000039
  29        -0.00000015
  30         0.00000031
  31        -0.00000057
  32         0.00000022
  33        -0.00000010
  34         0.00000003
  35        -0.00000001
  36         0.00000006
  37        -0.00000007
  38         0.00000003
  39        -0.00000002
  40         0.00000002
  41        -0.00000001
  42        -0.00000000
  43         0.00000000
  44        -0.00000001
  45         0.00000000
  46         0.00000000
  47         0.00000000
  48        -0.00000000
  49         0.00000000
  50         0.00000000
  51        -0.00000000
  52        -0.00000000
  53        -0.00000000
  54         0.00000001
  55        -0.00000001
  56        -0.00000000
  57         0.00000000
  58        -0.00000000
  59         0.00000002
  60         0.00000000
  61        -0.00000000
Sym=    50a  
Ene=    21.8830
Spin= Alpha
Occup=    0.00000
   1         0.00000000
   2        -0.00000000
   3         0.00000000
   4        -0.00000002
   5         0.00000008
   6        -0.00000037
   7         0.00000143
   8        -0.00000210
   9         0.00000134
  10        -0.00000060
  11         0.00000070
  12        -0.00000041
  13         0.00000002
  14        -0.00000007
  15         0.00354570
  16        -0.04927287
  17         0.03911567
  18        -0.09472624
  19         1.31636337
  20        -1.04500594
  21         0.15517246
  22        -2.15635418
  23         1.71183969
  24        -0.11877665
  25         1.65057933
  26        -1.31032643
  27         0.07668622
  28        -1.06566920
  29         0.84599106
  30        -0.04837087
  31         0.67218548
  32        -0.53362026
  33         0.02469267
  34        -0.34314169
  35         0.27240589
  36        -0.01124294
  37         0.15623752
  38        -0.12403049
  39         0.00295302
  40        -0.04103608
  41         0.03257724
  42        -0.00000000
  43         0.00000000
  44        -0.00000000
  45        -0.00000000
  46        -0.00000000
  47         0.00000000
  48        -0.00000000
  49         0.00000000
  50         0.00000000
  51         0.00000000
  52         0.00000000
  53        -0.00000000
  54         0.00000000
  55         0.00000000
  56         0.00000000
  57        -0.00000000
  58        -0.00000000
  59         0.00000000
  60        -0.00000000
  61         0.00000000
Sym=    51a  
Ene=    21.8830
Spin= Alpha
Occup=    0.00000
   1        -0.00000000
   2         0.00000000
   3        -0.00000000
   4         0.00000001
   5        -0.00000004
   6         0.00000013
   7        -0.00000071
   8         0.00000136
   9        -0.00000128
  10         0.00000081
  11        -0.00000054
  12         0.00000028
  13        -0.00000007
  14         0.00000004
  15        -0.06249206
  16        -0.00727502
  17        -0.00349944
  18         1.66952387
  19         0.19435785
  20         0.09349022
  21        -2.73486958
  22        -0.31838020
  23        -0.15314759
  24         2.09340320
  25         0.24370375
  26         0.11722667
  27        -1.35157156
  28        -0.15734325
  29        -0.07568549
  30         0.85252245
  31         0.09924647
  32         0.04773967
  33        -0.43520136
  34        -0.05066402
  35        -0.02437046
  36         0.19815385
  37         0.02306810
  38         0.01109624
  39        -0.05204606
  40        -0.00605887
  41        -0.00291448
  42         0.00000000
  43        -0.00000000
  44         0.00000000
  45        -0.00000000
  46         0.00000000
  47        -0.00000000
  48         0.00000000
  49        -0.00000000
  50         0.00000000
  51        -0.00000000
  52        -0.00000000
  53        -0.00000000
  54        -0.00000000
  55         0.00000000
  56        -0.00000000
  57        -0.00000000
  58         0.00000000
  59         0.00000000
  60         0.00000000
  61         0.00000000
Sym=    52a  
Ene=    21.8830
Spin= Alpha
Occup=    0.00000
   1         0.00000000
   2        -0.00000000
   3         0.00000000
   4        -0.00000000
   5         0.00000003
   6        -0.00000012
   7         0.00000050
   8        -0.00000074
   9         0.00000039
  10        -0.00000004
  11         0.00000009
  12        -0.00000008
  13        -0.00000001
  14        -0.00000001
  15         0.00725259
  16        -0.03859645
  17        -0.04927625
  18        -0.19375849
  19         1.03113389
  20         1.31645274
  21         0.31739819
  22        -1.68911314
  23        -2.15649757
  24        -0.24295206
  25         1.29292933
  26         1.65068847
  27         0.15685799
  28        -0.83475800
  29        -1.06573978
  30        -0.09894039
  31         0.52653561
  32         0.67223042
  33         0.05050777
  34        -0.26878964
  35        -0.34316481
  36        -0.02299698
  37         0.12238408
  38         0.15624829
  39         0.00604026
  40        -0.03214433
  41        -0.04103932
  42        -0.00000000
  43        -0.00000000
  44         0.00000000
  45        -0.00000000
  46        -0.00000000
  47         0.00000000
  48         0.00000000
  49        -0.00000000
  50         0.00000000
  51         0.00000000
  52        -0.00000000
  53         0.00000000
  54        -0.00000000
  55         0.00000000
  56         0.00000000
  57         0.00000000
  58         0.00000000
  59         0.00000000
  60        -0.00000000
  61         0.00000000
