[MOLDEN FORMAT]
[N_ATOMS]
                    1
[ATOMS] (AU)
BE          1      4           0.00000000      0.00000000      0.00000000
[5D]
[CHARGE] (MULLIKEN)
  -7.2830630415410269E-014
[GTO] (AU)
   1
   s   1
  0.228096278E+05  0.100000000E+01
   s   1
  0.339929664E+04  0.100000000E+01
   s   1
  0.766433203E+03  0.100000000E+01
   s   1
  0.213434404E+03  0.100000000E+01
   s   1
  0.677612557E+02  0.100000000E+01
   s   1
  0.235591544E+02  0.100000000E+01
   s   1
  0.879114398E+01  0.100000000E+01
   s   1
  0.349583573E+01  0.100000000E+01
   s   1
  0.146376115E+01  0.100000000E+01
   s   1
  0.613483920E+00  0.100000000E+01
   s   1
  0.259747488E+00  0.100000000E+01
   s   1
  0.105009408E+00  0.100000000E+01
   s   1
  0.427664160E-01  0.100000000E+01
   s   1
  0.149677920E-01  0.100000000E+01
   p   1
  0.337101840E+02  0.100000000E+01
   p   1
  0.805764950E+01  0.100000000E+01
   p   1
  0.283647140E+01  0.100000000E+01
   p   1
  0.109996570E+01  0.100000000E+01
   p   1
  0.443396400E+00  0.100000000E+01
   p   1
  0.182226400E+00  0.100000000E+01
   p   1
  0.757241000E-01  0.100000000E+01
   p   1
  0.316854000E-01  0.100000000E+01
   p   1
  0.110899000E-01  0.100000000E+01
   d   1
  0.140000000E+01  0.100000000E+01
   d   1
  0.490000000E+00  0.100000000E+01
   d   1
  0.171500000E+00  0.100000000E+01
   d   1
  0.600250000E-01  0.100000000E+01
 
[MO]
Sym=     1a  
Ene=     0.0000
Spin= Alpha
Occup=    1.99687
   1         0.00005290
   2         0.00041484
   3         0.00220890
   4         0.00948955
   5         0.03458048
   6         0.10538832
   7         0.24459289
   8         0.38592072
   9         0.31394228
  10         0.06677666
  11        -0.00471232
  12        -0.00589051
  13        -0.00294176
  14         0.00009684
  15         0.00000000
  16        -0.00000000
  17         0.00000000
  18        -0.00000000
  19         0.00000000
  20        -0.00000000
  21         0.00000000
  22        -0.00000000
  23         0.00000000
  24         0.00000000
  25        -0.00000000
  26         0.00000000
  27        -0.00000000
  28         0.00000000
  29         0.00000000
  30        -0.00000000
  31        -0.00000000
  32         0.00000000
  33        -0.00000000
  34         0.00000000
  35        -0.00000000
  36        -0.00000000
  37        -0.00000000
  38         0.00000000
  39        -0.00000000
  40         0.00000000
  41        -0.00000000
  42         0.00000000
  43        -0.00000000
  44         0.00000000
  45        -0.00000000
  46        -0.00000000
  47        -0.00000000
  48         0.00000000
  49        -0.00000000
  50         0.00000000
  51         0.00000000
  52         0.00000000
  53        -0.00000000
  54         0.00000000
  55        -0.00000000
  56        -0.00000000
  57         0.00000000
  58         0.00000000
  59        -0.00000000
  60        -0.00000000
  61         0.00000000
Sym=     2a  
Ene=     0.0000
Spin= Alpha
Occup=    1.80733
   1        -0.00000930
   2        -0.00007294
   3        -0.00038885
   4        -0.00167791
   5        -0.00618977
   6        -0.01949140
   7        -0.04862484
   8        -0.09257169
   9        -0.13022708
  10        -0.06272639
  11         0.28639503
  12         0.62427212
  13         0.23542366
  14        -0.00178861
  15         0.00000000
  16        -0.00000000
  17         0.00000000
  18         0.00000000
  19        -0.00000000
  20         0.00000000
  21        -0.00000000
  22         0.00000000
  23        -0.00000000
  24        -0.00000001
  25         0.00000000
  26        -0.00000000
  27        -0.00000003
  28         0.00000001
  29        -0.00000000
  30        -0.00000001
  31         0.00000000
  32        -0.00000000
  33         0.00000003
  34        -0.00000001
  35         0.00000000
  36         0.00000001
  37        -0.00000000
  38         0.00000000
  39        -0.00000000
  40         0.00000000
  41        -0.00000000
  42         0.00000000
  43        -0.00000000
  44         0.00000000
  45        -0.00000000
  46        -0.00000000
  47         0.00000000
  48        -0.00000000
  49         0.00000000
  50        -0.00000000
  51        -0.00000000
  52        -0.00000000
  53         0.00000000
  54        -0.00000000
  55         0.00000000
  56         0.00000000
  57        -0.00000000
  58         0.00000000
  59        -0.00000000
  60         0.00000000
  61         0.00000000
Sym=     3a  
Ene=     0.0000
Spin= Alpha
Occup=    0.00063
   1         0.00000000
   2        -0.00000000
   3         0.00000000
   4        -0.00000000
   5         0.00000002
   6        -0.00000007
   7         0.00000030
   8        -0.00000057
   9         0.00000066
  10        -0.00000050
  11         0.00000023
  12        -0.00000007
  13         0.00000006
  14        -0.00000004
  15         0.00289006
  16         0.00590990
  17         0.07909847
  18         0.02121521
  19         0.04338333
  20         0.58064509
  21         0.01647091
  22         0.03368151
  23         0.45079530
  24         0.00060161
  25         0.00123037
  26         0.01646734
  27        -0.00155182
  28        -0.00317343
  29        -0.04247340
  30        -0.00385464
  31        -0.00788237
  32        -0.10549813
  33        -0.00186355
  34        -0.00381081
  35        -0.05100409
  36        -0.00008686
  37        -0.00017765
  38        -0.00237767
  39        -0.00000045
  40        -0.00000088
  41        -0.00001175
  42         0.00000000
  43         0.00000000
  44        -0.00000000
  45         0.00000000
  46         0.00000000
  47        -0.00000000
  48        -0.00000000
  49         0.00000000
  50        -0.00000000
  51        -0.00000000
  52        -0.00000000
  53         0.00000000
  54        -0.00000000
  55         0.00000000
  56         0.00000000
  57        -0.00000000
  58         0.00000000
  59         0.00000000
  60        -0.00000000
  61         0.00000000
Sym=     4a  
Ene=     0.0000
Spin= Alpha
Occup=    0.00063
   1         0.00000000
   2        -0.00000000
   3         0.00000000
   4        -0.00000001
   5         0.00000005
   6        -0.00000027
   7         0.00000080
   8        -0.00000149
   9         0.00000186
  10        -0.00000154
  11         0.00000085
  12        -0.00000043
  13         0.00000030
  14        -0.00000013
  15         0.00022725
  16         0.07915003
  17        -0.00592206
  18         0.00166820
  19         0.58102342
  20        -0.04347255
  21         0.00129515
  22         0.45108916
  23        -0.03375079
  24         0.00004731
  25         0.01647795
  26        -0.00123289
  27        -0.00012202
  28        -0.04250098
  29         0.00317995
  30        -0.00030310
  31        -0.10556692
  32         0.00789859
  33        -0.00014653
  34        -0.05103732
  35         0.00381864
  36        -0.00000683
  37        -0.00237919
  38         0.00017801
  39        -0.00000004
  40        -0.00001181
  41         0.00000088
  42         0.00000000
  43        -0.00000000
  44         0.00000000
  45         0.00000000
  46         0.00000000
  47        -0.00000000
  48         0.00000000
  49        -0.00000000
  50        -0.00000000
  51        -0.00000000
  52         0.00000000
  53        -0.00000000
  54        -0.00000000
  55         0.00000000
  56         0.00000000
  57        -0.00000000
  58        -0.00000000
  59        -0.00000000
  60        -0.00000000
  61         0.00000000
Sym=     5a  
Ene=     0.0000
Spin= Alpha
Occup=    0.00063
   1         0.00000000
   2        -0.00000000
   3         0.00000000
   4        -0.00000001
   5         0.00000008
   6        -0.00000018
   7         0.00000093
   8        -0.00000175
   9         0.00000206
  10        -0.00000201
  11         0.00000143
  12        -0.00000053
  13         0.00000009
  14        -0.00000008
  15         0.07931870
  16        -0.00044210
  17        -0.00286505
  18         0.58226102
  19        -0.00324537
  20        -0.02103181
  21         0.45205030
  22        -0.00251960
  23        -0.01632841
  24         0.01651263
  25        -0.00009205
  26        -0.00059651
  27        -0.04259118
  28         0.00023740
  29         0.00153848
  30        -0.10579196
  31         0.00058965
  32         0.00382128
  33        -0.05114596
  34         0.00028508
  35         0.00184745
  36        -0.00238423
  37         0.00001329
  38         0.00008613
  39        -0.00001196
  40         0.00000006
  41         0.00000041
  42        -0.00000000
  43         0.00000000
  44         0.00000000
  45         0.00000000
  46        -0.00000000
  47         0.00000000
  48        -0.00000000
  49        -0.00000000
  50        -0.00000000
  51         0.00000000
  52        -0.00000000
  53        -0.00000000
  54         0.00000000
  55         0.00000000
  56        -0.00000000
  57        -0.00000000
  58        -0.00000000
  59        -0.00000000
  60         0.00000000
  61         0.00000000
Sym=     6a  
Ene=     0.0000
Spin= Alpha
Occup=    0.00125
   1         0.00008430
   2         0.00068807
   3         0.00350964
   4         0.01686244
   5         0.06784657
   6         0.33847287
   7         0.74125308
   8        -0.18433120
   9        -0.79521297
  10        -0.18452112
  11         0.07858896
  12         0.19347057
  13         0.07112662
  14        -0.00021904
  15        -0.00000001
  16        -0.00000000
  17        -0.00000000
  18        -0.00000007
  19        -0.00000001
  20        -0.00000001
  21        -0.00000006
  22         0.00000001
  23        -0.00000001
  24        -0.00000001
  25         0.00000000
  26         0.00000000
  27        -0.00000006
  28         0.00000003
  29         0.00000001
  30        -0.00000010
  31         0.00000005
  32         0.00000001
  33        -0.00000005
  34         0.00000002
  35         0.00000001
  36         0.00000000
  37        -0.00000000
  38         0.00000000
  39        -0.00000000
  40         0.00000000
  41         0.00000000
  42         0.00000000
  43        -0.00000000
  44         0.00000000
  45        -0.00000000
  46        -0.00000000
  47        -0.00000000
  48         0.00000000
  49        -0.00000000
  50         0.00000000
  51         0.00000000
  52         0.00000000
  53        -0.00000000
  54         0.00000000
  55        -0.00000000
  56        -0.00000000
  57        -0.00000000
  58        -0.00000000
  59         0.00000000
  60         0.00000000
  61        -0.00000000
Sym=     7a  
Ene=     0.0000
Spin= Alpha
Occup=    0.06422
   1        -0.00000000
   2        -0.00000000
   3         0.00000000
   4        -0.00000000
   5         0.00000001
   6        -0.00000005
   7         0.00000017
   8        -0.00000038
   9         0.00000041
  10        -0.00000024
  11         0.00000013
  12        -0.00000003
  13        -0.00000001
  14        -0.00000004
  15        -0.00005896
  16         0.00009141
  17         0.00114200
  18        -0.00037398
  19         0.00057981
  20         0.00724390
  21        -0.00106560
  22         0.00165214
  23         0.02064106
  24        -0.00257725
  25         0.00399579
  26         0.04992153
  27        -0.01152385
  28         0.01786680
  29         0.22321934
  30        -0.02774175
  31         0.04301131
  32         0.53736293
  33        -0.01540878
  34         0.02389006
  35         0.29847111
  36        -0.00030271
  37         0.00046933
  38         0.00586353
  39        -0.00010538
  40         0.00016338
  41         0.00204124
  42         0.00000000
  43         0.00000000
  44        -0.00000000
  45         0.00000000
  46         0.00000000
  47        -0.00000000
  48         0.00000001
  49         0.00000000
  50        -0.00000000
  51         0.00000000
  52         0.00000000
  53        -0.00000001
  54        -0.00000000
  55         0.00000000
  56        -0.00000000
  57         0.00000000
  58         0.00000000
  59        -0.00000000
  60         0.00000000
  61         0.00000000
Sym=     8a  
Ene=     0.0000
Spin= Alpha
Occup=    0.06422
   1         0.00000000
   2        -0.00000000
   3         0.00000000
   4        -0.00000001
   5         0.00000004
   6        -0.00000021
   7         0.00000061
   8        -0.00000134
   9         0.00000171
  10        -0.00000142
  11         0.00000092
  12        -0.00000031
  13         0.00000002
  14        -0.00000008
  15        -0.00000625
  16         0.00114347
  17        -0.00009185
  18        -0.00003963
  19         0.00725317
  20        -0.00058260
  21        -0.00011292
  22         0.02066773
  23        -0.00166011
  24        -0.00027310
  25         0.04998554
  26        -0.00401501
  27        -0.00122113
  28         0.22350645
  29        -0.01795282
  30        -0.00293966
  31         0.53805387
  32        -0.04321838
  33        -0.00163279
  34         0.29885497
  35        -0.02400508
  36        -0.00003208
  37         0.00587107
  38        -0.00047159
  39        -0.00001117
  40         0.00204385
  41        -0.00016417
  42         0.00000000
  43        -0.00000000
  44         0.00000000
  45         0.00000000
  46         0.00000000
  47        -0.00000000
  48        -0.00000000
  49        -0.00000000
  50        -0.00000000
  51         0.00000001
  52         0.00000000
  53         0.00000000
  54         0.00000000
  55         0.00000001
  56        -0.00000001
  57         0.00000000
  58        -0.00000000
  59         0.00000000
  60         0.00000000
  61         0.00000000
Sym=     9a  
Ene=     0.0000
Spin= Alpha
Occup=    0.06422
   1         0.00000000
   2        -0.00000000
   3         0.00000000
   4        -0.00000001
   5         0.00000006
   6        -0.00000024
   7         0.00000075
   8        -0.00000134
   9         0.00000214
  10        -0.00000189
  11         0.00000032
  12        -0.00000037
  13         0.00000083
  14        -0.00000011
  15         0.00114566
  16         0.00001094
  17         0.00005827
  18         0.00726674
  19         0.00006939
  20         0.00036959
  21         0.02070734
  22         0.00019773
  23         0.00105322
  24         0.05007970
  25         0.00047820
  26         0.00254711
  27         0.22393024
  28         0.00213828
  29         0.01138942
  30         0.53907329
  31         0.00514754
  32         0.02741803
  33         0.29942143
  34         0.00285914
  35         0.01522900
  36         0.00588224
  37         0.00005617
  38         0.00029918
  39         0.00204774
  40         0.00001955
  41         0.00010415
  42        -0.00000000
  43         0.00000000
  44        -0.00000000
  45         0.00000000
  46        -0.00000000
  47        -0.00000001
  48        -0.00000000
  49         0.00000000
  50         0.00000001
  51         0.00000000
  52         0.00000000
  53         0.00000000
  54        -0.00000000
  55        -0.00000001
  56        -0.00000001
  57        -0.00000000
  58         0.00000000
  59        -0.00000000
  60         0.00000000
  61        -0.00000000
Sym=    10a  
Ene=     0.0275
Spin= Alpha
Occup=    0.00000
   1         0.00000000
   2         0.00000000
   3         0.00000000
   4         0.00000000
   5         0.00000000
   6         0.00000000
   7         0.00000000
   8         0.00000000
   9        -0.00000000
  10        -0.00000000
  11         0.00000000
  12         0.00000001
  13        -0.00000000
  14        -0.00000000
  15         0.00000722
  16        -0.00001099
  17        -0.00013567
  18         0.00001708
  19        -0.00002599
  20        -0.00032085
  21         0.00032683
  22        -0.00049723
  23        -0.00613772
  24        -0.00036817
  25         0.00056013
  26         0.00691419
  27         0.00140490
  28        -0.00213740
  29        -0.02638375
  30        -0.00640336
  31         0.00974195
  32         0.12025330
  33         0.01029249
  34        -0.01565881
  35        -0.19329021
  36        -0.03534285
  37         0.05376995
  38         0.66372891
  39         0.07181280
  40        -0.10925466
  41        -1.34862466
  42        -0.00000000
  43        -0.00000000
  44         0.00000000
  45         0.00000000
  46        -0.00000000
  47         0.00000000
  48         0.00000000
  49        -0.00000000
  50        -0.00000000
  51         0.00000000
  52        -0.00000000
  53        -0.00000000
  54         0.00000000
  55         0.00000000
  56        -0.00000000
  57         0.00000000
  58         0.00000000
  59        -0.00000000
  60         0.00000000
  61         0.00000000
Sym=    11a  
Ene=     0.0275
Spin= Alpha
Occup=    0.00000
   1        -0.00000000
   2         0.00000000
   3        -0.00000000
   4         0.00000000
   5        -0.00000000
   6         0.00000000
   7        -0.00000000
   8         0.00000000
   9        -0.00000001
  10         0.00000000
  11        -0.00000001
  12         0.00000003
  13        -0.00000003
  14        -0.00000000
  15         0.00000061
  16        -0.00013586
  17         0.00001104
  18         0.00000145
  19        -0.00032130
  20         0.00002611
  21         0.00002782
  22        -0.00614619
  23         0.00049940
  24        -0.00003134
  25         0.00692370
  26        -0.00056257
  27         0.00011959
  28        -0.02642013
  29         0.00214671
  30        -0.00054508
  31         0.12041899
  32        -0.00978440
  33         0.00087614
  34        -0.19355653
  35         0.01572704
  36        -0.00300853
  37         0.66464349
  38        -0.05400424
  39         0.00611300
  40        -1.35048288
  41         0.10973071
  42        -0.00000000
  43         0.00000000
  44        -0.00000000
  45        -0.00000000
  46        -0.00000000
  47         0.00000000
  48        -0.00000000
  49         0.00000000
  50         0.00000000
  51         0.00000000
  52        -0.00000000
  53         0.00000000
  54        -0.00000000
  55        -0.00000000
  56        -0.00000000
  57         0.00000000
  58        -0.00000000
  59         0.00000000
  60         0.00000000
  61         0.00000000
Sym=    12a  
Ene=     0.0275
Spin= Alpha
Occup=    0.00000
   1        -0.00000000
   2        -0.00000000
   3        -0.00000000
   4        -0.00000000
   5        -0.00000000
   6        -0.00000000
   7        -0.00000001
   8         0.00000000
   9        -0.00000001
  10         0.00000009
  11        -0.00000011
  12         0.00000017
  13        -0.00000069
  14         0.00000085
  15        -0.00013612
  16        -0.00000120
  17        -0.00000715
  18        -0.00032191
  19        -0.00000283
  20        -0.00001691
  21        -0.00615782
  22        -0.00005416
  23        -0.00032351
  24         0.00693669
  25         0.00006101
  26         0.00036443
  27        -0.02647001
  28        -0.00023281
  29        -0.00139064
  30         0.12064605
  31         0.00106111
  32         0.00633831
  33        -0.19392146
  34        -0.00170559
  35        -0.01018793
  36         0.66589693
  37         0.00585674
  38         0.03498382
  39        -1.35302925
  40        -0.01190026
  41        -0.07108328
  42         0.00000000
  43        -0.00000000
  44         0.00000000
  45        -0.00000000
  46         0.00000000
  47        -0.00000000
  48         0.00000000
  49        -0.00000000
  50         0.00000000
  51        -0.00000000
  52         0.00000000
  53        -0.00000000
  54         0.00000000
  55        -0.00000000
  56         0.00000000
  57        -0.00000000
  58         0.00000000
  59        -0.00000000
  60         0.00000000
  61        -0.00000000
Sym=    13a  
Ene=     0.0390
Spin= Alpha
Occup=    0.00000
   1         0.00000064
   2         0.00000159
   3         0.00003502
   4         0.00000526
   5         0.00071314
   6        -0.00013230
   7         0.01047485
   8        -0.00781513
   9         0.03468671
  10        -0.17800050
  11         0.28140962
  12        -0.65162999
  13         1.84175163
  14        -1.93749957
  15        -0.00000000
  16        -0.00000000
  17        -0.00000000
  18        -0.00000001
  19        -0.00000000
  20        -0.00000000
  21        -0.00000002
  22        -0.00000002
  23        -0.00000001
  24        -0.00000002
  25        -0.00000003
  26        -0.00000001
  27        -0.00000004
  28        -0.00000003
  29        -0.00000001
  30         0.00000010
  31        -0.00000002
  32        -0.00000000
  33        -0.00000011
  34         0.00000000
  35        -0.00000001
  36         0.00000065
  37         0.00000001
  38         0.00000003
  39        -0.00000078
  40        -0.00000000
  41        -0.00000003
  42         0.00000000
  43        -0.00000000
  44         0.00000000
  45        -0.00000000
  46        -0.00000000
  47        -0.00000000
  48         0.00000000
  49        -0.00000000
  50         0.00000000
  51         0.00000000
  52         0.00000000
  53        -0.00000000
  54         0.00000000
  55        -0.00000000
  56        -0.00000000
  57        -0.00000000
  58         0.00000000
  59        -0.00000000
  60         0.00000000
  61         0.00000000
Sym=    14a  
Ene=     0.1352
Spin= Alpha
Occup=    0.00000
   1         0.00000000
   2         0.00000000
   3        -0.00000000
   4         0.00000000
   5        -0.00000000
   6         0.00000000
   7        -0.00000000
   8         0.00000000
   9        -0.00000001
  10        -0.00000000
  11         0.00000001
  12         0.00000001
  13        -0.00000001
  14        -0.00000001
  15         0.00000003
  16        -0.00000033
  17        -0.00000580
  18         0.00003456
  19        -0.00033632
  20        -0.00597664
  21         0.00000417
  22        -0.00004062
  23        -0.00072177
  24         0.00033844
  25        -0.00329362
  26        -0.05852920
  27        -0.00097287
  28         0.00946768
  29         0.16824526
  30         0.00195303
  31        -0.01900633
  32        -0.33775183
  33        -0.00927111
  34         0.09022376
  35         1.60332032
  36         0.01481633
  37        -0.14418811
  38        -2.56229314
  39        -0.00585379
  40         0.05696728
  41         1.01233643
  42        -0.00000000
  43        -0.00000000
  44         0.00000000
  45        -0.00000000
  46        -0.00000000
  47         0.00000000
  48         0.00000000
  49        -0.00000000
  50         0.00000000
  51         0.00000000
  52        -0.00000000
  53        -0.00000000
  54         0.00000000
  55        -0.00000000
  56        -0.00000000
  57         0.00000000
  58         0.00000001
  59        -0.00000001
  60         0.00000000
  61         0.00000000
Sym=    15a  
Ene=     0.1352
Spin= Alpha
Occup=    0.00000
   1        -0.00000000
   2         0.00000000
   3        -0.00000000
   4         0.00000000
   5        -0.00000000
   6         0.00000000
   7        -0.00000000
   8         0.00000002
   9        -0.00000004
  10         0.00000003
  11        -0.00000009
  12         0.00000029
  13        -0.00000031
  14         0.00000008
  15        -0.00000001
  16        -0.00000580
  17         0.00000033
  18        -0.00000667
  19        -0.00597674
  20         0.00033629
  21        -0.00000081
  22        -0.00072177
  23         0.00004061
  24        -0.00006537
  25        -0.05853015
  26         0.00329329
  27         0.00018790
  28         0.16824802
  29        -0.00946675
  30        -0.00037722
  31        -0.33775737
  32         0.01900446
  33         0.00179066
  34         1.60334664
  35        -0.09021489
  36        -0.00286168
  37        -2.56233516
  38         0.14417393
  39         0.00113062
  40         1.01235299
  41        -0.05696168
  42        -0.00000000
  43         0.00000000
  44        -0.00000000
  45        -0.00000000
  46        -0.00000000
  47         0.00000000
  48        -0.00000000
  49         0.00000000
  50         0.00000000
  51         0.00000000
  52        -0.00000000
  53         0.00000000
  54        -0.00000000
  55        -0.00000000
  56        -0.00000000
  57         0.00000001
  58        -0.00000000
  59         0.00000000
  60         0.00000001
  61         0.00000001
Sym=    16a  
Ene=     0.1352
Spin= Alpha
Occup=    0.00000
   1         0.00000000
   2         0.00000000
   3         0.00000000
   4         0.00000000
   5         0.00000000
   6         0.00000000
   7         0.00000000
   8         0.00000002
   9        -0.00000006
  10         0.00000007
  11        -0.00000037
  12         0.00000125
  13        -0.00000160
  14         0.00000076
  15         0.00000581
  16        -0.00000000
  17         0.00000003
  18         0.00598609
  19        -0.00000472
  20         0.00003488
  21         0.00072290
  22        -0.00000057
  23         0.00000421
  24         0.05862174
  25        -0.00004625
  26         0.00034158
  27        -0.16851135
  28         0.00013295
  29        -0.00098189
  30         0.33828597
  31        -0.00026690
  32         0.00197114
  33        -1.60585602
  34         0.00126697
  35        -0.00935707
  36         2.56634522
  37        -0.00202477
  38         0.01495369
  39        -1.01393712
  40         0.00079997
  41        -0.00590804
  42        -0.00000000
  43         0.00000000
  44        -0.00000000
  45         0.00000000
  46        -0.00000000
  47         0.00000000
  48        -0.00000000
  49         0.00000000
  50        -0.00000000
  51         0.00000000
  52        -0.00000000
  53         0.00000000
  54        -0.00000000
  55         0.00000000
  56        -0.00000000
  57         0.00000001
  58        -0.00000000
  59         0.00000000
  60        -0.00000001
  61         0.00000001
Sym=    17a  
Ene=     0.1841
Spin= Alpha
Occup=    0.00000
   1        -0.00000000
   2        -0.00000000
   3         0.00000000
   4        -0.00000000
   5         0.00000000
   6        -0.00000000
   7         0.00000000
   8        -0.00000000
   9         0.00000000
  10        -0.00000000
  11         0.00000000
  12        -0.00000001
  13         0.00000001
  14        -0.00000000
  15         0.00000000
  16        -0.00000000
  17         0.00000000
  18         0.00000000
  19         0.00000000
  20         0.00000000
  21         0.00000000
  22        -0.00000000
  23         0.00000000
  24        -0.00000000
  25         0.00000000
  26         0.00000000
  27         0.00000000
  28        -0.00000000
  29        -0.00000000
  30        -0.00000000
  31         0.00000001
  32         0.00000000
  33         0.00000000
  34        -0.00000002
  35        -0.00000001
  36        -0.00000000
  37         0.00000003
  38         0.00000001
  39         0.00000000
  40        -0.00000001
  41        -0.00000000
  42        -0.00976356
  43         0.00006105
  44         0.00064345
  45        -0.00469908
  46        -0.00004306
  47         0.06178877
  48        -0.00038635
  49        -0.00407210
  50         0.02973819
  51         0.00027249
  52        -0.18908972
  53         0.00118234
  54         0.01246170
  55        -0.09100660
  56        -0.00083388
  57         0.99978968
  58        -0.00625149
  59        -0.06588975
  60         0.48118673
  61         0.00440907
Sym=    18a  
Ene=     0.1841
Spin= Alpha
Occup=    0.00000
   1        -0.00000000
   2        -0.00000000
   3        -0.00000000
   4        -0.00000000
   5        -0.00000000
   6        -0.00000000
   7         0.00000000
   8        -0.00000000
   9         0.00000000
  10        -0.00000000
  11         0.00000000
  12        -0.00000000
  13         0.00000000
  14        -0.00000000
  15         0.00000000
  16         0.00000000
  17         0.00000000
  18         0.00000000
  19         0.00000000
  20        -0.00000000
  21         0.00000000
  22         0.00000000
  23         0.00000000
  24         0.00000000
  25         0.00000000
  26        -0.00000000
  27         0.00000000
  28        -0.00000000
  29         0.00000000
  30        -0.00000000
  31         0.00000000
  32        -0.00000001
  33        -0.00000000
  34        -0.00000001
  35         0.00000003
  36        -0.00000000
  37         0.00000001
  38        -0.00000003
  39         0.00000000
  40        -0.00000000
  41         0.00000001
  42        -0.00062689
  43         0.00027804
  44        -0.01082892
  45        -0.00017894
  46         0.00024538
  47         0.00396725
  48        -0.00175961
  49         0.06853093
  50         0.00113244
  51        -0.00155291
  52        -0.01214083
  53         0.00538486
  54        -0.20972248
  55        -0.00346555
  56         0.00475232
  57         0.06419320
  58        -0.02847183
  59         1.10888299
  60         0.01832370
  61        -0.02512732
Sym=    19a  
Ene=     0.1841
Spin= Alpha
Occup=    0.00000
   1         0.00000000
   2         0.00000000
   3         0.00000000
   4         0.00000000
   5         0.00000000
   6        -0.00000000
   7         0.00000000
   8        -0.00000000
   9         0.00000000
  10        -0.00000000
  11         0.00000001
  12        -0.00000002
  13         0.00000003
  14        -0.00000001
  15         0.00000000
  16         0.00000000
  17        -0.00000000
  18         0.00000000
  19        -0.00000000
  20        -0.00000000
  21         0.00000000
  22         0.00000000
  23        -0.00000000
  24         0.00000000
  25        -0.00000000
  26         0.00000000
  27         0.00000000
  28         0.00000000
  29        -0.00000000
  30        -0.00000000
  31        -0.00000000
  32         0.00000001
  33         0.00000000
  34         0.00000001
  35        -0.00000002
  36        -0.00000001
  37        -0.00000001
  38         0.00000003
  39         0.00000000
  40         0.00000000
  41        -0.00000001
  42        -0.00232473
  43        -0.00950919
  44        -0.00019140
  45         0.00468228
  46        -0.00019631
  47         0.01471209
  48         0.06017902
  49         0.00121128
  50        -0.02963185
  51         0.00124234
  52        -0.04502283
  53        -0.18416347
  54        -0.00370685
  55         0.09068118
  56        -0.00380189
  57         0.23805292
  58         0.97374271
  59         0.01959951
  60        -0.47946612
  61         0.02010203
Sym=    20a  
Ene=     0.1841
Spin= Alpha
Occup=    0.00000
   1         0.00000000
   2         0.00000000
   3         0.00000000
   4        -0.00000000
   5         0.00000000
   6        -0.00000000
   7         0.00000000
   8        -0.00000000
   9         0.00000000
  10        -0.00000000
  11         0.00000001
  12        -0.00000004
  13         0.00000005
  14        -0.00000002
  15         0.00000000
  16         0.00000000
  17         0.00000000
  18        -0.00000000
  19        -0.00000000
  20         0.00000000
  21         0.00000000
  22         0.00000000
  23         0.00000000
  24        -0.00000000
  25        -0.00000000
  26        -0.00000000
  27         0.00000000
  28         0.00000000
  29         0.00000000
  30        -0.00000001
  31        -0.00000000
  32        -0.00000000
  33         0.00000003
  34         0.00000002
  35         0.00000001
  36        -0.00000004
  37        -0.00000002
  38        -0.00000001
  39         0.00000001
  40         0.00000001
  41         0.00000000
  42        -0.00408686
  43         0.00522249
  44         0.00023065
  45         0.00859016
  46         0.00008472
  47         0.02586373
  48        -0.03305055
  49        -0.00145969
  50        -0.05436293
  51        -0.00053616
  52        -0.07914974
  53         0.10114328
  54         0.00446704
  55         0.16636471
  56         0.00164080
  57         0.41849498
  58        -0.53478324
  59        -0.02361894
  60        -0.87963388
  61        -0.00867556
Sym=    21a  
Ene=     0.1841
Spin= Alpha
Occup=    0.00000
   1         0.00000000
   2         0.00000000
   3         0.00000000
   4         0.00000000
   5         0.00000000
   6         0.00000000
   7         0.00000000
   8         0.00000000
   9        -0.00000000
  10         0.00000000
  11        -0.00000000
  12         0.00000000
  13        -0.00000000
  14         0.00000000
  15         0.00000000
  16        -0.00000000
  17         0.00000000
  18        -0.00000000
  19        -0.00000000
  20        -0.00000000
  21         0.00000000
  22        -0.00000000
  23         0.00000000
  24        -0.00000000
  25         0.00000000
  26        -0.00000000
  27         0.00000000
  28        -0.00000000
  29         0.00000000
  30        -0.00000001
  31         0.00000001
  32        -0.00000000
  33         0.00000003
  34        -0.00000002
  35         0.00000000
  36        -0.00000003
  37         0.00000003
  38        -0.00000000
  39         0.00000001
  40        -0.00000001
  41         0.00000000
  42         0.00003472
  43         0.00021888
  44        -0.00024220
  45        -0.00000304
  46        -0.01084990
  47        -0.00021971
  48        -0.00138517
  49         0.00153276
  50         0.00001923
  51         0.06866368
  52         0.00067237
  53         0.00423897
  54        -0.00469063
  55        -0.00005886
  56        -0.21012873
  57        -0.00355508
  58        -0.02241306
  59         0.02480118
  60         0.00031122
  61         1.11103099
Sym=    22a  
Ene=     0.2570
Spin= Alpha
Occup=    0.00000
   1         0.00000079
   2         0.00002274
   3        -0.00000483
   4         0.00069237
   5        -0.00060274
   6         0.01162792
   7        -0.00783070
   8         0.11635540
   9        -0.28726741
  10         0.46569126
  11        -1.78452337
  12         4.46974776
  13        -4.43971381
  14         1.40302413
  15        -0.00000000
  16         0.00000000
  17         0.00000000
  18        -0.00000001
  19         0.00000000
  20         0.00000000
  21        -0.00000001
  22         0.00000000
  23         0.00000000
  24        -0.00000008
  25         0.00000002
  26         0.00000000
  27         0.00000013
  28        -0.00000003
  29         0.00000000
  30        -0.00000046
  31         0.00000013
  32        -0.00000000
  33         0.00000159
  34        -0.00000042
  35        -0.00000000
  36        -0.00000130
  37         0.00000035
  38         0.00000000
  39         0.00000040
  40        -0.00000011
  41        -0.00000000
  42         0.00000000
  43        -0.00000000
  44         0.00000000
  45        -0.00000000
  46        -0.00000000
  47         0.00000000
  48         0.00000000
  49         0.00000000
  50        -0.00000000
  51         0.00000000
  52        -0.00000000
  53         0.00000000
  54        -0.00000000
  55         0.00000000
  56         0.00000000
  57         0.00000001
  58        -0.00000000
  59         0.00000000
  60        -0.00000001
  61        -0.00000000
Sym=    23a  
Ene=     0.5115
Spin= Alpha
Occup=    0.00000
   1         0.00000000
   2         0.00000000
   3         0.00000000
   4         0.00000000
   5         0.00000000
   6         0.00000000
   7        -0.00000000
   8         0.00000000
   9         0.00000001
  10        -0.00000008
  11         0.00000020
  12        -0.00000027
  13         0.00000020
  14        -0.00000006
  15         0.00013380
  16        -0.00013473
  17        -0.00194770
  18         0.00007681
  19        -0.00007734
  20        -0.00111807
  21         0.00614290
  22        -0.00618562
  23        -0.08942167
  24        -0.00932243
  25         0.00938727
  26         0.13570583
  27         0.03863312
  28        -0.03890182
  29        -0.56237907
  30        -0.17441041
  31         0.17562347
  32         2.53887745
  33         0.24241900
  34        -0.24410508
  35        -3.52887285
  36        -0.13026805
  37         0.13117410
  38         1.89630102
  39         0.03459836
  40        -0.03483900
  41        -0.50364544
  42         0.00000000
  43        -0.00000000
  44        -0.00000000
  45         0.00000000
  46         0.00000000
  47        -0.00000000
  48         0.00000000
  49         0.00000000
  50        -0.00000000
  51         0.00000000
  52         0.00000001
  53         0.00000001
  54        -0.00000001
  55         0.00000000
  56         0.00000000
  57        -0.00000000
  58        -0.00000000
  59         0.00000001
  60        -0.00000000
  61        -0.00000000
Sym=    24a  
Ene=     0.5115
Spin= Alpha
Occup=    0.00000
   1        -0.00000000
   2         0.00000000
   3        -0.00000000
   4         0.00000000
   5        -0.00000000
   6         0.00000000
   7        -0.00000001
   8         0.00000002
   9        -0.00000001
  10        -0.00000012
  11         0.00000044
  12        -0.00000070
  13         0.00000056
  14        -0.00000020
  15         0.00001878
  16        -0.00195209
  17         0.00013632
  18         0.00001078
  19        -0.00112059
  20         0.00007826
  21         0.00086212
  22        -0.08962319
  23         0.00625879
  24        -0.00130835
  25         0.13601167
  26        -0.00949830
  27         0.00542193
  28        -0.56364648
  29         0.03936196
  30        -0.02447746
  31         2.54459915
  32        -0.17770076
  33         0.03402207
  34        -3.53682558
  35         0.24699238
  36        -0.01828235
  37         1.90057456
  38        -0.13272564
  39         0.00485568
  40        -0.50478050
  41         0.03525108
  42         0.00000000
  43         0.00000000
  44         0.00000000
  45         0.00000000
  46        -0.00000000
  47        -0.00000000
  48        -0.00000000
  49        -0.00000000
  50        -0.00000000
  51         0.00000000
  52         0.00000001
  53        -0.00000000
  54         0.00000001
  55         0.00000001
  56         0.00000001
  57        -0.00000001
  58         0.00000000
  59        -0.00000000
  60        -0.00000001
  61        -0.00000000
Sym=    25a  
Ene=     0.5115
Spin= Alpha
Occup=    0.00000
   1        -0.00000000
   2         0.00000000
   3        -0.00000000
   4         0.00000000
   5        -0.00000000
   6         0.00000001
   7        -0.00000004
   8         0.00000011
   9        -0.00000025
  10         0.00000061
  11        -0.00000141
  12         0.00000217
  13        -0.00000162
  14         0.00000037
  15        -0.00195227
  16        -0.00002801
  17        -0.00013218
  18        -0.00112069
  19        -0.00001608
  20        -0.00007587
  21        -0.08963122
  22        -0.00128598
  23        -0.00606834
  24         0.13602387
  25         0.00195159
  26         0.00920928
  27        -0.56369693
  28        -0.00808759
  29        -0.03816421
  30         2.54482690
  31         0.03651168
  32         0.17229346
  33        -3.53714196
  34        -0.05074883
  35        -0.23947658
  36         1.90074458
  37         0.02727077
  38         0.12868690
  39        -0.50482577
  40        -0.00724294
  41        -0.03417843
  42         0.00000000
  43         0.00000000
  44        -0.00000000
  45        -0.00000000
  46        -0.00000000
  47        -0.00000000
  48        -0.00000000
  49         0.00000000
  50         0.00000000
  51         0.00000000
  52        -0.00000000
  53         0.00000000
  54        -0.00000000
  55         0.00000001
  56        -0.00000001
  57         0.00000000
  58        -0.00000000
  59         0.00000000
  60        -0.00000000
  61         0.00000001
Sym=    26a  
Ene=     0.6030
Spin= Alpha
Occup=    0.00000
   1         0.00000000
   2         0.00000000
   3        -0.00000000
   4         0.00000000
   5        -0.00000000
   6         0.00000000
   7        -0.00000000
   8         0.00000000
   9        -0.00000000
  10         0.00000000
  11        -0.00000000
  12         0.00000000
  13        -0.00000000
  14         0.00000000
  15        -0.00000000
  16         0.00000000
  17         0.00000000
  18         0.00000000
  19         0.00000000
  20         0.00000000
  21        -0.00000000
  22         0.00000000
  23         0.00000000
  24         0.00000000
  25        -0.00000000
  26        -0.00000000
  27        -0.00000000
  28         0.00000001
  29         0.00000000
  30         0.00000000
  31        -0.00000003
  32        -0.00000001
  33        -0.00000000
  34         0.00000004
  35         0.00000001
  36         0.00000000
  37        -0.00000002
  38        -0.00000001
  39        -0.00000000
  40         0.00000000
  41         0.00000000
  42         0.04390232
  43        -0.00040666
  44         0.00048445
  45         0.02098606
  46         0.00002544
  47        -0.14413428
  48         0.00133511
  49        -0.00159050
  50        -0.06889865
  51        -0.00008352
  52         1.25791514
  53        -0.01165200
  54         0.01388089
  55         0.60130491
  56         0.00072893
  57        -0.65520720
  58         0.00606915
  59        -0.00723010
  60        -0.31320023
  61        -0.00037968
Sym=    27a  
Ene=     0.6030
Spin= Alpha
Occup=    0.00000
   1         0.00000000
   2         0.00000000
   3         0.00000000
   4         0.00000000
   5         0.00000000
   6         0.00000000
   7        -0.00000000
   8         0.00000000
   9        -0.00000000
  10         0.00000000
  11        -0.00000000
  12         0.00000000
  13        -0.00000000
  14         0.00000000
  15         0.00000000
  16         0.00000000
  17        -0.00000000
  18         0.00000000
  19         0.00000000
  20        -0.00000000
  21         0.00000000
  22         0.00000000
  23        -0.00000000
  24        -0.00000000
  25        -0.00000000
  26         0.00000000
  27         0.00000000
  28         0.00000000
  29        -0.00000001
  30        -0.00000000
  31        -0.00000001
  32         0.00000003
  33         0.00000000
  34         0.00000001
  35        -0.00000004
  36        -0.00000000
  37        -0.00000001
  38         0.00000002
  39         0.00000000
  40         0.00000000
  41        -0.00000000
  42        -0.00040836
  43         0.00442616
  44         0.04846032
  45        -0.00017842
  46        -0.00019235
  47         0.00134066
  48        -0.01453138
  49        -0.15909850
  50         0.00058575
  51         0.00063150
  52        -0.01170044
  53         0.12682096
  54         1.38851364
  55        -0.00511207
  56        -0.00551130
  57         0.00609438
  58        -0.06605692
  59        -0.72323172
  60         0.00266271
  61         0.00287066
Sym=    28a  
Ene=     0.6030
Spin= Alpha
Occup=    0.00000
   1        -0.00000000
   2        -0.00000000
   3        -0.00000000
   4        -0.00000000
   5         0.00000000
   6        -0.00000000
   7         0.00000000
   8        -0.00000000
   9         0.00000000
  10        -0.00000000
  11         0.00000000
  12        -0.00000000
  13         0.00000000
  14        -0.00000000
  15         0.00000000
  16        -0.00000000
  17         0.00000000
  18         0.00000000
  19        -0.00000000
  20        -0.00000000
  21         0.00000000
  22        -0.00000000
  23         0.00000000
  24        -0.00000000
  25        -0.00000000
  26        -0.00000000
  27         0.00000000
  28        -0.00000000
  29         0.00000000
  30        -0.00000001
  31         0.00000000
  32        -0.00000002
  33         0.00000001
  34        -0.00000000
  35         0.00000003
  36        -0.00000001
  37         0.00000000
  38        -0.00000001
  39         0.00000000
  40        -0.00000000
  41         0.00000000
  42         0.00048293
  43         0.04845548
  44        -0.00441863
  45         0.00002981
  46         0.00073286
  47        -0.00158548
  48        -0.15908261
  49         0.01450666
  50        -0.00009786
  51        -0.00240604
  52         0.01383707
  53         1.38837498
  54        -0.12660520
  55         0.00085410
  56         0.02099845
  57        -0.00720728
  58        -0.72315949
  59         0.06594454
  60        -0.00044487
  61        -0.01093741
Sym=    29a  
Ene=     0.6030
Spin= Alpha
Occup=    0.00000
   1        -0.00000000
   2         0.00000000
   3        -0.00000000
   4        -0.00000000
   5         0.00000000
   6        -0.00000000
   7         0.00000000
   8        -0.00000000
   9         0.00000000
  10        -0.00000000
  11         0.00000000
  12        -0.00000000
  13         0.00000000
  14        -0.00000000
  15        -0.00000000
  16         0.00000000
  17        -0.00000000
  18        -0.00000000
  19        -0.00000000
  20         0.00000000
  21        -0.00000000
  22         0.00000000
  23        -0.00000000
  24         0.00000000
  25        -0.00000000
  26         0.00000000
  27        -0.00000001
  28         0.00000000
  29        -0.00000000
  30         0.00000003
  31        -0.00000002
  32         0.00000000
  33        -0.00000004
  34         0.00000002
  35        -0.00000000
  36         0.00000002
  37        -0.00000001
  38         0.00000000
  39        -0.00000001
  40         0.00000000
  41        -0.00000000
  42         0.00000092
  43        -0.00071237
  44         0.00025791
  45        -0.00008066
  46         0.04865849
  47        -0.00000301
  48         0.00233877
  49        -0.00084674
  50         0.00026481
  51        -0.15974910
  52         0.00002623
  53        -0.02041139
  54         0.00738984
  55        -0.00231110
  56         1.39419170
  57        -0.00001366
  58         0.01063163
  59        -0.00384913
  60         0.00120378
  61        -0.72618924
Sym=    30a  
Ene=     0.6030
Spin= Alpha
Occup=    0.00000
   1         0.00000000
   2         0.00000000
   3         0.00000000
   4        -0.00000000
   5         0.00000000
   6        -0.00000000
   7         0.00000000
   8        -0.00000000
   9         0.00000000
  10        -0.00000000
  11         0.00000000
  12        -0.00000000
  13         0.00000000
  14        -0.00000000
  15         0.00000000
  16         0.00000000
  17        -0.00000000
  18        -0.00000000
  19         0.00000000
  20        -0.00000000
  21         0.00000000
  22         0.00000000
  23        -0.00000000
  24        -0.00000000
  25        -0.00000000
  26         0.00000000
  27         0.00000000
  28         0.00000001
  29        -0.00000000
  30        -0.00000002
  31        -0.00000002
  32         0.00000000
  33         0.00000003
  34         0.00000002
  35        -0.00000001
  36        -0.00000002
  37        -0.00000001
  38         0.00000000
  39         0.00000000
  40         0.00000000
  41        -0.00000000
  42        -0.02098608
  43         0.00017815
  44        -0.00003116
  45         0.04390644
  46         0.00007595
  47         0.06889870
  48        -0.00058489
  49         0.00010231
  50        -0.14414779
  51        -0.00024935
  52        -0.60130542
  53         0.00510458
  54        -0.00089287
  55         1.25803310
  56         0.00217617
  57         0.31320049
  58        -0.00265881
  59         0.00046507
  60        -0.65526864
  61        -0.00113350
Sym=    31a  
Ene=     1.1038
Spin= Alpha
Occup=    0.00000
   1        -0.00000795
   2         0.00000551
   3        -0.00049131
   4         0.00076882
   5        -0.01064716
   6         0.01619690
   7        -0.15741743
   8         0.25867027
   9        -0.95847218
  10         3.86758350
  11        -6.95473385
  12         6.03686964
  13        -2.72656782
  14         0.67496100
  15         0.00000000
  16        -0.00000000
  17        -0.00000000
  18        -0.00000001
  19         0.00000000
  20        -0.00000000
  21         0.00000003
  22        -0.00000003
  23        -0.00000001
  24        -0.00000010
  25         0.00000003
  26         0.00000000
  27         0.00000047
  28        -0.00000031
  29        -0.00000010
  30        -0.00000112
  31         0.00000052
  32         0.00000014
  33         0.00000064
  34        -0.00000038
  35        -0.00000011
  36        -0.00000032
  37         0.00000017
  38         0.00000005
  39         0.00000008
  40        -0.00000004
  41        -0.00000001
  42        -0.00000000
  43         0.00000000
  44        -0.00000000
  45         0.00000000
  46         0.00000000
  47        -0.00000000
  48        -0.00000000
  49        -0.00000000
  50         0.00000000
  51        -0.00000000
  52        -0.00000000
  53         0.00000000
  54        -0.00000000
  55         0.00000000
  56         0.00000000
  57        -0.00000000
  58        -0.00000000
  59         0.00000000
  60         0.00000000
  61        -0.00000000
Sym=    32a  
Ene=     1.6734
Spin= Alpha
Occup=    0.00000
   1         0.00000000
   2         0.00000000
   3        -0.00000000
   4         0.00000000
   5        -0.00000000
   6         0.00000001
   7        -0.00000003
   8         0.00000015
   9        -0.00000016
  10        -0.00000037
  11         0.00000089
  12        -0.00000055
  13         0.00000010
  14        -0.00000007
  15         0.00123356
  16         0.00001743
  17         0.00011735
  18        -0.06668182
  19        -0.00094238
  20        -0.00634348
  21         0.05845116
  22         0.00082606
  23         0.00556049
  24        -0.94782413
  25        -0.01339512
  26        -0.09016699
  27         3.18599750
  28         0.04502608
  29         0.30308554
  30        -3.56008419
  31        -0.05031286
  32        -0.33867260
  33         2.13545678
  34         0.03017932
  35         0.20314707
  36        -0.94734829
  37        -0.01338839
  38        -0.09012172
  39         0.24133594
  40         0.00341068
  41         0.02295841
  42         0.00000000
  43        -0.00000000
  44         0.00000000
  45        -0.00000001
  46         0.00000000
  47        -0.00000004
  48         0.00000000
  49        -0.00000000
  50         0.00000007
  51        -0.00000004
  52         0.00000003
  53        -0.00000000
  54         0.00000000
  55        -0.00000005
  56         0.00000003
  57        -0.00000001
  58         0.00000000
  59        -0.00000000
  60         0.00000002
  61        -0.00000001
Sym=    33a  
Ene=     1.6734
Spin= Alpha
Occup=    0.00000
   1        -0.00000000
   2        -0.00000000
   3        -0.00000000
   4        -0.00000000
   5        -0.00000000
   6        -0.00000000
   7        -0.00000000
   8        -0.00000000
   9        -0.00000000
  10         0.00000009
  11        -0.00000020
  12         0.00000017
  13        -0.00000006
  14         0.00000001
  15        -0.00011243
  16        -0.00021944
  17         0.00121448
  18         0.00607770
  19         0.01186189
  20        -0.06565022
  21        -0.00532752
  22        -0.01039776
  23         0.05754694
  24         0.08638923
  25         0.16860645
  26        -0.93316086
  27        -0.29038703
  28        -0.56675035
  29         3.13670823
  30         0.32448308
  31         0.63329585
  32        -3.50500765
  33        -0.19463573
  34        -0.37987188
  35         2.10242000
  36         0.08634585
  37         0.16852179
  38        -0.93269232
  39        -0.02199652
  40        -0.04293075
  41         0.23760247
  42         0.00000000
  43        -0.00000001
  44         0.00000000
  45         0.00000000
  46         0.00000000
  47        -0.00000000
  48         0.00000007
  49        -0.00000004
  50        -0.00000001
  51        -0.00000001
  52         0.00000000
  53        -0.00000005
  54         0.00000003
  55         0.00000001
  56         0.00000001
  57        -0.00000000
  58         0.00000002
  59        -0.00000001
  60        -0.00000000
  61        -0.00000000
Sym=    34a  
Ene=     1.6734
Spin= Alpha
Occup=    0.00000
   1        -0.00000000
   2         0.00000000
   3        -0.00000000
   4         0.00000000
   5        -0.00000000
   6         0.00000002
   7        -0.00000008
   8         0.00000021
   9        -0.00000049
  10         0.00000096
  11        -0.00000118
  12         0.00000080
  13        -0.00000025
  14         0.00000002
  15        -0.00003786
  16         0.00121954
  17         0.00021685
  18         0.00204678
  19        -0.06592421
  20        -0.01172191
  21        -0.00179415
  22         0.05778710
  23         0.01027506
  24         0.02909326
  25        -0.93705539
  26        -0.16661677
  27        -0.09779351
  28         3.14979931
  29         0.56006227
  30         0.10927603
  31        -3.51963579
  32        -0.62582249
  33        -0.06554739
  34         2.11119445
  35         0.37538911
  36         0.02907866
  37        -0.93658489
  38        -0.16653311
  39        -0.00740776
  40         0.23859407
  41         0.04242415
  42        -0.00000000
  43        -0.00000000
  44         0.00000000
  45        -0.00000000
  46        -0.00000001
  47         0.00000002
  48         0.00000001
  49        -0.00000001
  50         0.00000004
  51         0.00000007
  52        -0.00000002
  53        -0.00000001
  54         0.00000001
  55        -0.00000003
  56        -0.00000005
  57         0.00000001
  58         0.00000000
  59        -0.00000000
  60         0.00000001
  61         0.00000002
Sym=    35a  
Ene=     1.7499
Spin= Alpha
Occup=    0.00000
   1        -0.00000000
   2        -0.00000000
   3        -0.00000000
   4         0.00000000
   5        -0.00000000
   6         0.00000000
   7        -0.00000000
   8         0.00000000
   9        -0.00000000
  10         0.00000000
  11        -0.00000000
  12         0.00000000
  13        -0.00000000
  14         0.00000000
  15         0.00000000
  16         0.00000000
  17         0.00000000
  18        -0.00000000
  19        -0.00000000
  20        -0.00000000
  21         0.00000000
  22         0.00000000
  23         0.00000000
  24        -0.00000000
  25        -0.00000000
  26        -0.00000003
  27         0.00000000
  28         0.00000001
  29         0.00000009
  30        -0.00000000
  31        -0.00000001
  32        -0.00000010
  33         0.00000000
  34         0.00000001
  35         0.00000006
  36        -0.00000000
  37        -0.00000000
  38        -0.00000003
  39         0.00000000
  40         0.00000000
  41         0.00000001
  42         0.00607433
  43        -0.00035077
  44        -0.11569734
  45         0.00538322
  46         0.00024639
  47        -0.07667965
  48         0.00442802
  49         1.46051260
  50        -0.06795537
  51        -0.00311038
  52         0.05696324
  53        -0.00328946
  54        -1.08497541
  55         0.05048221
  56         0.00231061
  57        -0.01975906
  58         0.00114103
  59         0.37634952
  60        -0.01751096
  61        -0.00080149
Sym=    36a  
Ene=     1.7499
Spin= Alpha
Occup=    0.00000
   1         0.00000000
   2         0.00000000
   3         0.00000000
   4         0.00000000
   5         0.00000000
   6         0.00000000
   7         0.00000000
   8         0.00000000
   9        -0.00000000
  10         0.00000000
  11        -0.00000000
  12         0.00000000
  13        -0.00000000
  14         0.00000000
  15         0.00000000
  16        -0.00000000
  17         0.00000000
  18        -0.00000000
  19         0.00000000
  20        -0.00000000
  21         0.00000000
  22        -0.00000000
  23         0.00000000
  24        -0.00000000
  25         0.00000003
  26        -0.00000000
  27         0.00000000
  28        -0.00000009
  29         0.00000001
  30        -0.00000000
  31         0.00000009
  32        -0.00000001
  33         0.00000000
  34        -0.00000006
  35         0.00000001
  36        -0.00000000
  37         0.00000003
  38        -0.00000000
  39         0.00000000
  40        -0.00000001
  41         0.00000000
  42        -0.10130112
  43        -0.00036766
  44        -0.00791935
  45        -0.05592108
  46        -0.00002305
  47         1.27878093
  48         0.00464118
  49         0.09997045
  50         0.70592328
  51         0.00029096
  52        -0.94997185
  53        -0.00344781
  54        -0.07426535
  55        -0.52441136
  56        -0.00021615
  57         0.32952032
  58         0.00119595
  59         0.02576070
  60         0.18190455
  61         0.00007498
Sym=    37a  
Ene=     1.7499
Spin= Alpha
Occup=    0.00000
   1        -0.00000000
   2        -0.00000000
   3        -0.00000000
   4        -0.00000000
   5        -0.00000000
   6        -0.00000000
   7        -0.00000000
   8        -0.00000000
   9        -0.00000000
  10         0.00000000
  11         0.00000000
  12         0.00000000
  13         0.00000000
  14         0.00000000
  15         0.00000000
  16        -0.00000000
  17        -0.00000000
  18        -0.00000000
  19         0.00000000
  20         0.00000000
  21         0.00000000
  22        -0.00000000
  23        -0.00000000
  24        -0.00000000
  25         0.00000000
  26         0.00000004
  27         0.00000000
  28        -0.00000000
  29        -0.00000015
  30        -0.00000000
  31         0.00000000
  32         0.00000015
  33         0.00000000
  34        -0.00000000
  35        -0.00000010
  36        -0.00000000
  37         0.00000000
  38         0.00000004
  39         0.00000000
  40        -0.00000000
  41        -0.00000001
  42         0.00170389
  43        -0.11593718
  44         0.00032776
  45        -0.00237020
  46        -0.00137032
  47        -0.02150914
  48         1.46354017
  49        -0.00413748
  50         0.02992042
  51         0.01729829
  52         0.01597856
  53        -1.08722451
  54         0.00307362
  55        -0.02222707
  56        -0.01285043
  57        -0.00554254
  58         0.37712967
  59        -0.00106616
  60         0.00770999
  61         0.00445748
Sym=    38a  
Ene=     1.7499
Spin= Alpha
Occup=    0.00000
   1         0.00000000
   2        -0.00000000
   3        -0.00000000
   4        -0.00000000
   5        -0.00000000
   6        -0.00000000
   7        -0.00000000
   8         0.00000000
   9        -0.00000000
  10         0.00000000
  11        -0.00000000
  12         0.00000000
  13        -0.00000000
  14         0.00000000
  15         0.00000000
  16        -0.00000000
  17         0.00000000
  18        -0.00000000
  19         0.00000000
  20        -0.00000000
  21         0.00000000
  22        -0.00000000
  23         0.00000000
  24        -0.00000003
  25         0.00000004
  26        -0.00000000
  27         0.00000009
  28        -0.00000015
  29         0.00000000
  30        -0.00000010
  31         0.00000015
  32        -0.00000000
  33         0.00000006
  34        -0.00000010
  35         0.00000000
  36        -0.00000003
  37         0.00000004
  38        -0.00000000
  39         0.00000001
  40        -0.00000001
  41         0.00000000
  42        -0.00009400
  43         0.00136370
  44        -0.00024471
  45         0.00024377
  46        -0.11597391
  47         0.00118658
  48        -0.01721469
  49         0.00308912
  50        -0.00307721
  51         1.46400385
  52        -0.00088148
  53         0.01278833
  54        -0.00229483
  55         0.00228598
  56        -1.08756897
  57         0.00030576
  58        -0.00443594
  59         0.00079601
  60        -0.00079295
  61         0.37724915
Sym=    39a  
Ene=     1.7499
Spin= Alpha
Occup=    0.00000
   1        -0.00000000
   2        -0.00000000
   3        -0.00000000
   4        -0.00000000
   5        -0.00000000
   6        -0.00000000
   7        -0.00000000
   8        -0.00000000
   9         0.00000000
  10        -0.00000000
  11         0.00000000
  12        -0.00000000
  13         0.00000000
  14        -0.00000000
  15        -0.00000000
  16        -0.00000000
  17         0.00000000
  18         0.00000000
  19         0.00000000
  20        -0.00000000
  21        -0.00000000
  22        -0.00000000
  23         0.00000000
  24         0.00000005
  25         0.00000002
  26        -0.00000000
  27        -0.00000017
  28        -0.00000005
  29         0.00000000
  30         0.00000018
  31         0.00000006
  32        -0.00000000
  33        -0.00000011
  34        -0.00000003
  35         0.00000000
  36         0.00000005
  37         0.00000002
  38        -0.00000000
  39        -0.00000001
  40        -0.00000000
  41         0.00000000
  42         0.05612673
  43         0.00289628
  44        -0.00178235
  45        -0.10144019
  46        -0.00022089
  47        -0.70851928
  48        -0.03656133
  49         0.02249956
  50         1.28053651
  51         0.00278845
  52         0.52633986
  53         0.02716043
  54        -0.01671432
  55        -0.95127602
  56        -0.00207147
  57        -0.18257349
  58        -0.00942124
  59         0.00579776
  60         0.32997271
  61         0.00071854
Sym=    40a  
Ene=     4.3185
Spin= Alpha
Occup=    0.00000
   1        -0.00000127
   2         0.00028287
   3        -0.00072902
   4         0.00946744
   5        -0.02210839
   6         0.16776153
   7        -0.33870941
   8         2.15771381
   9        -6.17180583
  10         8.44501799
  11        -6.23896267
  12         3.16602262
  13        -1.40443760
  14         0.32645631
  15        -0.00000000
  16        -0.00000000
  17        -0.00000000
  18         0.00000002
  19         0.00000002
  20         0.00000000
  21        -0.00000016
  22        -0.00000022
  23        -0.00000003
  24         0.00000064
  25         0.00000084
  26         0.00000011
  27        -0.00000057
  28        -0.00000088
  29        -0.00000012
  30         0.00000061
  31         0.00000062
  32         0.00000008
  33        -0.00000017
  34        -0.00000032
  35        -0.00000004
  36         0.00000010
  37         0.00000014
  38         0.00000002
  39        -0.00000003
  40        -0.00000004
  41        -0.00000001
  42         0.00000000
  43        -0.00000000
  44         0.00000000
  45        -0.00000000
  46        -0.00000000
  47        -0.00000000
  48         0.00000000
  49        -0.00000000
  50         0.00000000
  51         0.00000000
  52         0.00000000
  53        -0.00000000
  54         0.00000000
  55        -0.00000000
  56        -0.00000000
  57         0.00000000
  58         0.00000000
  59        -0.00000000
  60        -0.00000000
  61         0.00000000
Sym=    41a  
Ene=     5.1856
Spin= Alpha
Occup=    0.00000
   1         0.00000000
   2         0.00000000
   3        -0.00000000
   4         0.00000000
   5        -0.00000000
   6         0.00000000
   7        -0.00000000
   8         0.00000001
   9        -0.00000003
  10         0.00000003
  11        -0.00000002
  12         0.00000001
  13        -0.00000001
  14         0.00000000
  15        -0.00000000
  16         0.00000000
  17        -0.00000000
  18        -0.00000000
  19        -0.00000000
  20        -0.00000000
  21         0.00000000
  22         0.00000001
  23        -0.00000000
  24        -0.00000001
  25        -0.00000002
  26        -0.00000000
  27         0.00000001
  28         0.00000002
  29         0.00000000
  30        -0.00000000
  31        -0.00000001
  32        -0.00000000
  33         0.00000000
  34         0.00000001
  35         0.00000000
  36        -0.00000000
  37        -0.00000000
  38        -0.00000000
  39         0.00000000
  40         0.00000000
  41         0.00000000
  42        -0.34418474
  43         0.56785651
  44         0.00175085
  45         1.21587594
  46        -0.04092786
  47         0.28211717
  48        -0.46545373
  49        -0.00143512
  50        -0.99661443
  51         0.03354725
  52        -0.13443267
  53         0.22179504
  54         0.00068385
  55         0.47490034
  56        -0.01598572
  57         0.04411407
  58        -0.07278203
  59        -0.00022441
  60        -0.15583852
  61         0.00524571
Sym=    42a  
Ene=     5.1856
Spin= Alpha
Occup=    0.00000
   1         0.00000000
   2         0.00000000
   3        -0.00000000
   4         0.00000000
   5        -0.00000000
   6         0.00000000
   7        -0.00000000
   8         0.00000000
   9        -0.00000000
  10         0.00000000
  11        -0.00000000
  12         0.00000000
  13        -0.00000000
  14         0.00000000
  15        -0.00000000
  16        -0.00000000
  17        -0.00000000
  18         0.00000000
  19        -0.00000000
  20         0.00000000
  21        -0.00000001
  22        -0.00000000
  23        -0.00000000
  24         0.00000002
  25        -0.00000000
  26         0.00000000
  27        -0.00000002
  28         0.00000001
  29        -0.00000000
  30         0.00000001
  31        -0.00000000
  32         0.00000000
  33        -0.00000001
  34         0.00000000
  35        -0.00000000
  36         0.00000000
  37        -0.00000000
  38         0.00000000
  39        -0.00000000
  40         0.00000000
  41        -0.00000000
  42        -0.07896961
  43        -0.08256472
  44         0.23320071
  45         0.06165117
  46         1.36004413
  47         0.06472885
  48         0.06767565
  49        -0.19114713
  50        -0.05053348
  51        -1.11478447
  52        -0.03084418
  53        -0.03224837
  54         0.09108421
  55         0.02407989
  56         0.53120997
  57         0.01012152
  58         0.01058230
  59        -0.02988928
  60        -0.00790182
  61        -0.17431653
Sym=    43a  
Ene=     5.1856
Spin= Alpha
Occup=    0.00000
   1        -0.00000000
   2        -0.00000000
   3         0.00000000
   4        -0.00000000
   5         0.00000000
   6        -0.00000000
   7         0.00000000
   8        -0.00000000
   9         0.00000001
  10        -0.00000001
  11         0.00000001
  12        -0.00000000
  13         0.00000000
  14        -0.00000000
  15         0.00000000
  16        -0.00000000
  17        -0.00000000
  18         0.00000000
  19         0.00000000
  20        -0.00000000
  21         0.00000000
  22        -0.00000000
  23        -0.00000000
  24        -0.00000000
  25         0.00000000
  26        -0.00000000
  27        -0.00000000
  28        -0.00000000
  29         0.00000000
  30         0.00000000
  31         0.00000000
  32        -0.00000000
  33        -0.00000000
  34        -0.00000000
  35         0.00000000
  36         0.00000000
  37         0.00000000
  38        -0.00000000
  39        -0.00000000
  40        -0.00000000
  41         0.00000000
  42         0.39334978
  43         1.23622938
  44         0.11834872
  45        -0.46286678
  46         0.09857686
  47        -0.32241617
  48        -1.01329750
  49        -0.09700664
  50         0.37939703
  51        -0.08080028
  52         0.15363569
  53         0.48285005
  54         0.04622499
  55        -0.18078785
  56         0.03850243
  57        -0.05041555
  58        -0.15844722
  59        -0.01516873
  60         0.05932552
  61        -0.01263457
Sym=    44a  
Ene=     5.1856
Spin= Alpha
Occup=    0.00000
   1         0.00000000
   2         0.00000000
   3        -0.00000000
   4         0.00000000
   5        -0.00000000
   6         0.00000000
   7        -0.00000000
   8         0.00000000
   9        -0.00000000
  10         0.00000000
  11        -0.00000000
  12         0.00000000
  13        -0.00000000
  14         0.00000000
  15         0.00000000
  16         0.00000000
  17        -0.00000000
  18        -0.00000000
  19         0.00000000
  20         0.00000000
  21         0.00000000
  22         0.00000000
  23        -0.00000001
  24        -0.00000000
  25        -0.00000000
  26         0.00000003
  27         0.00000000
  28         0.00000000
  29        -0.00000002
  30        -0.00000000
  31        -0.00000000
  32         0.00000002
  33         0.00000000
  34         0.00000000
  35        -0.00000001
  36        -0.00000000
  37        -0.00000000
  38         0.00000000
  39         0.00000000
  40         0.00000000
  41        -0.00000000
  42        -0.19063386
  43        -0.06213374
  44         1.34896862
  45        -0.03511953
  46        -0.24455061
  47         0.15625645
  48         0.05092903
  49        -1.10570623
  50         0.02878635
  51         0.20045028
  52        -0.07445833
  53        -0.02426838
  54         0.52688407
  55        -0.01371709
  56        -0.09551729
  57         0.02443350
  58         0.00796367
  59        -0.17289698
  60         0.00450126
  61         0.03134399
Sym=    45a  
Ene=     5.1856
Spin= Alpha
Occup=    0.00000
   1        -0.00000000
   2        -0.00000000
   3         0.00000000
   4        -0.00000000
   5         0.00000000
   6        -0.00000000
   7         0.00000000
   8        -0.00000000
   9         0.00000001
  10        -0.00000001
  11         0.00000001
  12        -0.00000001
  13         0.00000000
  14        -0.00000000
  15        -0.00000000
  16         0.00000000
  17         0.00000000
  18         0.00000000
  19        -0.00000000
  20         0.00000000
  21        -0.00000000
  22         0.00000001
  23         0.00000000
  24         0.00000000
  25        -0.00000002
  26        -0.00000000
  27        -0.00000000
  28         0.00000002
  29         0.00000000
  30         0.00000000
  31        -0.00000001
  32        -0.00000000
  33        -0.00000000
  34         0.00000001
  35         0.00000000
  36         0.00000000
  37        -0.00000000
  38        -0.00000000
  39        -0.00000000
  40         0.00000000
  41         0.00000000
  42         1.26696170
  43        -0.24403887
  44         0.18124071
  45         0.47257000
  46         0.00625164
  47        -1.03848779
  48         0.20003082
  49        -0.14855719
  50        -0.38735044
  51        -0.00512427
  52         0.49485357
  53        -0.09531741
  54         0.07078952
  55         0.18457776
  56         0.00244178
  57        -0.16238617
  58         0.03127840
  59        -0.02322958
  60        -0.06056918
  61        -0.00080127
Sym=    46a  
Ene=     5.6385
Spin= Alpha
Occup=    0.00000
   1         0.00000000
   2         0.00000000
   3         0.00000000
   4         0.00000000
   5         0.00000001
   6        -0.00000000
   7         0.00000012
   8         0.00000002
   9        -0.00000081
  10         0.00000153
  11        -0.00000127
  12         0.00000055
  13        -0.00000017
  14         0.00000007
  15         0.02514117
  16         0.00029238
  17         0.00160522
  18        -0.07654512
  19        -0.00089018
  20        -0.00488728
  21         1.47816689
  22         0.01719028
  23         0.09437856
  24        -3.40941749
  25        -0.03964967
  26        -0.21768578
  27         3.10876260
  28         0.03615322
  29         0.19848945
  30        -1.92015342
  31        -0.02233034
  32        -0.12259868
  33         1.10287345
  34         0.01282582
  35         0.07041668
  36        -0.46206851
  37        -0.00537361
  38        -0.02950233
  39         0.12048038
  40         0.00140112
  41         0.00769248
  42         0.00000000
  43        -0.00000000
  44         0.00000000
  45        -0.00000000
  46         0.00000001
  47        -0.00000000
  48         0.00000000
  49        -0.00000000
  50         0.00000000
  51        -0.00000001
  52         0.00000000
  53        -0.00000000
  54         0.00000000
  55        -0.00000000
  56         0.00000000
  57         0.00000000
  58         0.00000000
  59        -0.00000000
  60        -0.00000000
  61        -0.00000000
Sym=    47a  
Ene=     5.6385
Spin= Alpha
Occup=    0.00000
   1         0.00000000
   2         0.00000000
   3         0.00000000
   4         0.00000000
   5         0.00000000
   6         0.00000001
   7         0.00000006
   8         0.00000026
   9        -0.00000122
  10         0.00000178
  11        -0.00000123
  12         0.00000061
  13        -0.00000034
  14         0.00000011
  15        -0.00012574
  16         0.02505974
  17        -0.00259507
  18         0.00038283
  19        -0.07629718
  20         0.00790099
  21        -0.00739284
  22         1.47337926
  23        -0.15257640
  24         0.01705172
  25        -3.39837440
  26         0.35192006
  27        -0.01554803
  28         3.09869325
  29        -0.32088646
  30         0.00960337
  31        -1.91393387
  32         0.19819821
  33        -0.00551586
  34         1.09930120
  35        -0.11383859
  36         0.00231097
  37        -0.46057181
  38         0.04769470
  39        -0.00060256
  40         0.12009006
  41        -0.01243597
  42        -0.00000001
  43         0.00000000
  44        -0.00000000
  45        -0.00000001
  46        -0.00000000
  47         0.00000001
  48        -0.00000000
  49         0.00000000
  50         0.00000001
  51         0.00000000
  52        -0.00000000
  53         0.00000000
  54        -0.00000000
  55        -0.00000000
  56        -0.00000000
  57         0.00000000
  58         0.00000000
  59         0.00000000
  60         0.00000000
  61        -0.00000000
Sym=    48a  
Ene=     5.6385
Spin= Alpha
Occup=    0.00000
   1         0.00000000
   2         0.00000000
   3         0.00000000
   4         0.00000000
   5         0.00000000
   6        -0.00000000
   7         0.00000003
   8         0.00000000
   9        -0.00000017
  10         0.00000026
  11        -0.00000013
  12         0.00000004
  13        -0.00000005
  14         0.00000002
  15        -0.00162678
  16         0.00258161
  17         0.02500859
  18         0.00495291
  19        -0.00786001
  20        -0.07614145
  21        -0.09564604
  22         0.15178507
  23         1.47037202
  24         0.22060923
  25        -0.35009484
  26        -3.39143808
  27        -0.20115510
  28         0.31922219
  29         3.09236859
  30         0.12424513
  31        -0.19717026
  32        -1.91002734
  33        -0.07136235
  34         0.11324817
  35         1.09705744
  36         0.02989852
  37        -0.04744733
  38        -0.45963172
  39        -0.00779578
  40         0.01237147
  41         0.11984492
  42        -0.00000000
  43        -0.00000000
  44         0.00000001
  45        -0.00000000
  46        -0.00000000
  47         0.00000000
  48         0.00000000
  49        -0.00000001
  50         0.00000000
  51         0.00000000
  52        -0.00000000
  53        -0.00000000
  54         0.00000000
  55        -0.00000000
  56        -0.00000000
  57         0.00000000
  58        -0.00000000
  59        -0.00000000
  60         0.00000000
  61         0.00000000
Sym=    49a  
Ene=    16.8080
Spin= Alpha
Occup=    0.00000
   1         0.00010326
   2        -0.00045194
   3         0.00729390
   4        -0.02294297
   5         0.17355508
   6        -0.48621129
   7         3.21091263
   8        -7.03916471
   9         7.57264801
  10        -5.08856802
  11         2.94757631
  12        -1.56157240
  13         0.59866494
  14        -0.15141395
  15        -0.00000002
  16        -0.00000001
  17        -0.00000000
  18         0.00000033
  19         0.00000022
  20         0.00000008
  21        -0.00000092
  22        -0.00000063
  23        -0.00000021
  24         0.00000075
  25         0.00000049
  26         0.00000017
  27        -0.00000049
  28        -0.00000037
  29        -0.00000012
  30         0.00000030
  31         0.00000013
  32         0.00000005
  33        -0.00000017
  34        -0.00000015
  35        -0.00000005
  36         0.00000007
  37         0.00000005
  38         0.00000002
  39        -0.00000002
  40        -0.00000001
  41        -0.00000000
  42        -0.00000000
  43         0.00000000
  44        -0.00000000
  45         0.00000000
  46         0.00000000
  47         0.00000000
  48        -0.00000000
  49         0.00000000
  50        -0.00000000
  51        -0.00000000
  52        -0.00000000
  53         0.00000000
  54        -0.00000000
  55         0.00000000
  56         0.00000000
  57         0.00000000
  58         0.00000000
  59        -0.00000000
  60        -0.00000000
  61         0.00000000
Sym=    50a  
Ene=    21.8830
Spin= Alpha
Occup=    0.00000
   1        -0.00000000
   2         0.00000000
   3        -0.00000000
   4         0.00000000
   5        -0.00000000
   6         0.00000001
   7        -0.00000009
   8         0.00000020
   9        -0.00000023
  10         0.00000013
  11        -0.00000004
  12         0.00000002
  13        -0.00000002
  14         0.00000001
  15         0.01131822
  16        -0.00547718
  17        -0.06174511
  18        -0.30237138
  19         0.14632534
  20         1.64954808
  21         0.49531581
  22        -0.23969614
  23        -2.70213153
  24        -0.37913908
  25         0.18347521
  26         2.06834428
  27         0.24478497
  28        -0.11845778
  29        -1.33539278
  30        -0.15440323
  31         0.07471971
  32         0.84232684
  33         0.07882216
  34        -0.03814408
  35        -0.43000411
  36        -0.03588910
  37         0.01736767
  38         0.19578838
  39         0.00942604
  40        -0.00456151
  41        -0.05142258
  42        -0.00000000
  43        -0.00000000
  44         0.00000000
  45         0.00000000
  46        -0.00000000
  47         0.00000000
  48         0.00000000
  49        -0.00000000
  50        -0.00000000
  51         0.00000000
  52         0.00000000
  53        -0.00000000
  54         0.00000000
  55         0.00000000
  56        -0.00000000
  57         0.00000000
  58        -0.00000000
  59        -0.00000000
  60         0.00000000
  61         0.00000000
Sym=    51a  
Ene=    21.8830
Spin= Alpha
Occup=    0.00000
   1        -0.00000000
   2         0.00000000
   3        -0.00000000
   4         0.00000000
   5        -0.00000002
   6         0.00000005
   7        -0.00000048
   8         0.00000121
   9        -0.00000147
  10         0.00000111
  11        -0.00000063
  12         0.00000033
  13        -0.00000017
  14         0.00000006
  15         0.00224872
  16        -0.06268832
  17         0.00597305
  18        -0.06007563
  19         1.67474653
  20        -0.15957280
  21         0.09841014
  22        -2.74340917
  23         0.26139686
  24        -0.07532796
  25         2.09994024
  26        -0.20008600
  27         0.04863427
  28        -1.35579220
  29         0.12918227
  30        -0.03067708
  31         0.85519421
  32        -0.08148441
  33         0.01566051
  34        -0.43657283
  35         0.04159743
  36        -0.00713050
  37         0.19877922
  38        -0.01894003
  39         0.00187278
  40        -0.05220809
  41         0.00497448
  42        -0.00000000
  43         0.00000000
  44        -0.00000000
  45        -0.00000000
  46        -0.00000000
  47         0.00000000
  48        -0.00000000
  49         0.00000000
  50         0.00000000
  51         0.00000000
  52        -0.00000000
  53         0.00000000
  54         0.00000000
  55        -0.00000000
  56        -0.00000000
  57         0.00000000
  58         0.00000000
  59         0.00000000
  60         0.00000000
  61        -0.00000000
Sym=    52a  
Ene=    21.8830
Spin= Alpha
Occup=    0.00000
   1        -0.00000000
   2         0.00000000
   3        -0.00000000
   4         0.00000001
   5        -0.00000005
   6         0.00000013
   7        -0.00000092
   8         0.00000210
   9        -0.00000241
  10         0.00000183
  11        -0.00000115
  12         0.00000054
  13        -0.00000017
  14         0.00000007
  15        -0.06194676
  16        -0.00327637
  17        -0.01106455
  18         1.65493534
  19         0.08752973
  20         0.29559445
  21        -2.71095643
  22        -0.14338282
  23        -0.48421449
  24         2.07509942
  25         0.10975226
  26         0.37064158
  27        -1.33975413
  28        -0.07085976
  29        -0.23929869
  30         0.84507791
  31         0.04469627
  32         0.15094264
  33        -0.43140845
  34        -0.02281725
  35        -0.07705554
  36         0.19642778
  37         0.01038909
  38         0.03508473
  39        -0.05159046
  40        -0.00272863
  41        -0.00921478
  42         0.00000000
  43        -0.00000000
  44         0.00000000
  45        -0.00000000
  46         0.00000000
  47        -0.00000000
  48         0.00000000
  49        -0.00000000
  50         0.00000000
  51        -0.00000000
  52         0.00000000
  53         0.00000000
  54         0.00000000
  55        -0.00000000
  56         0.00000000
  57         0.00000000
  58        -0.00000000
  59        -0.00000000
  60        -0.00000000
  61        -0.00000000
