[MOLDEN FORMAT]
[N_ATOMS]
                    1
[ATOMS] (AU)
BE          1      4           0.00000000      0.00000000      0.00000000
[5D]
[CHARGE] (MULLIKEN)
   0.0000000000000000     
[GTO] (AU)
   1
   s   1
  0.228096278E+05  0.100000000E+01
   s   1
  0.339929664E+04  0.100000000E+01
   s   1
  0.766433203E+03  0.100000000E+01
   s   1
  0.213434404E+03  0.100000000E+01
   s   1
  0.677612557E+02  0.100000000E+01
   s   1
  0.235591544E+02  0.100000000E+01
   s   1
  0.879114398E+01  0.100000000E+01
   s   1
  0.349583573E+01  0.100000000E+01
   s   1
  0.146376115E+01  0.100000000E+01
   s   1
  0.613483920E+00  0.100000000E+01
   s   1
  0.259747488E+00  0.100000000E+01
   s   1
  0.105009408E+00  0.100000000E+01
   s   1
  0.427664160E-01  0.100000000E+01
   s   1
  0.149677920E-01  0.100000000E+01
   p   1
  0.337101840E+02  0.100000000E+01
   p   1
  0.805764950E+01  0.100000000E+01
   p   1
  0.283647140E+01  0.100000000E+01
   p   1
  0.109996570E+01  0.100000000E+01
   p   1
  0.443396400E+00  0.100000000E+01
   p   1
  0.182226400E+00  0.100000000E+01
   p   1
  0.757241000E-01  0.100000000E+01
   p   1
  0.316854000E-01  0.100000000E+01
   p   1
  0.110899000E-01  0.100000000E+01
   d   1
  0.140000000E+01  0.100000000E+01
   d   1
  0.490000000E+00  0.100000000E+01
   d   1
  0.171500000E+00  0.100000000E+01
   d   1
  0.600250000E-01  0.100000000E+01
 
[MO]
Sym=     1a  
Ene=    -4.7332
Spin= Alpha
Occup=    2.00000
   1         0.00008379
   2         0.00045580
   3         0.00226365
   4         0.00955362
   5         0.03462138
   6         0.10522582
   7         0.24432314
   8         0.38534916
   9         0.31264399
  10         0.06580908
  11        -0.00230434
  12        -0.00047519
  13        -0.00090438
  14         0.00012802
  15         0.00000000
  16        -0.00000000
  17        -0.00000000
  18        -0.00000000
  19        -0.00000000
  20         0.00000000
  21        -0.00000000
  22        -0.00000000
  23        -0.00000000
  24         0.00000000
  25        -0.00000000
  26         0.00000000
  27        -0.00000000
  28        -0.00000000
  29        -0.00000000
  30        -0.00000000
  31        -0.00000000
  32         0.00000000
  33         0.00000000
  34        -0.00000000
  35        -0.00000000
  36        -0.00000000
  37        -0.00000000
  38         0.00000000
  39         0.00000000
  40        -0.00000000
  41        -0.00000000
  42        -0.00000000
  43         0.00000000
  44         0.00000000
  45         0.00000000
  46        -0.00000000
  47         0.00000000
  48        -0.00000000
  49         0.00000000
  50        -0.00000000
  51         0.00000000
  52        -0.00000000
  53         0.00000000
  54        -0.00000000
  55         0.00000000
  56        -0.00000000
  57         0.00000000
  58        -0.00000000
  59         0.00000000
  60        -0.00000000
  61         0.00000000
Sym=     2a  
Ene=    -0.3093
Spin= Alpha
Occup=    2.00000
   1        -0.00001584
   2        -0.00008535
   3        -0.00042742
   4        -0.00180358
   5        -0.00662866
   6        -0.02074964
   7        -0.05168270
   8        -0.09791039
   9        -0.13562070
  10        -0.06592401
  11         0.30790815
  12         0.62781846
  13         0.21523397
  14        -0.00396691
  15         0.00000000
  16        -0.00000000
  17        -0.00000000
  18        -0.00000000
  19        -0.00000000
  20         0.00000000
  21         0.00000000
  22        -0.00000000
  23        -0.00000000
  24         0.00000000
  25        -0.00000000
  26         0.00000000
  27        -0.00000000
  28        -0.00000000
  29        -0.00000000
  30        -0.00000000
  31        -0.00000000
  32         0.00000000
  33         0.00000000
  34        -0.00000000
  35        -0.00000000
  36        -0.00000000
  37        -0.00000000
  38         0.00000000
  39         0.00000000
  40        -0.00000000
  41        -0.00000000
  42        -0.00000000
  43        -0.00000000
  44         0.00000000
  45         0.00000000
  46         0.00000000
  47         0.00000000
  48         0.00000000
  49        -0.00000000
  50        -0.00000000
  51         0.00000000
  52        -0.00000000
  53         0.00000000
  54         0.00000000
  55         0.00000000
  56        -0.00000000
  57         0.00000000
  58        -0.00000000
  59        -0.00000000
  60        -0.00000000
  61        -0.00000000
Sym=     3a  
Ene=     3.0243
Spin= Alpha
Occup=    0.00000
   1         0.00000000
   2         0.00000000
   3         0.00000000
   4         0.00000000
   5         0.00000000
   6         0.00000000
   7         0.00000000
   8         0.00000000
   9         0.00000000
  10        -0.00000000
  11         0.00000000
  12         0.00000000
  13         0.00000000
  14        -0.00000000
  15        -0.00000000
  16         0.00000000
  17         0.00005414
  18         0.00000000
  19         0.00000000
  20        -0.00048381
  21        -0.00000000
  22        -0.00000000
  23         0.00233991
  24        -0.00000000
  25         0.00000000
  26        -0.00853733
  27         0.00000000
  28        -0.00000000
  29         0.02698798
  30         0.00000000
  31         0.00000000
  32        -0.07842331
  33        -0.00000000
  34        -0.00000000
  35         0.21105341
  36         0.00000000
  37         0.00000000
  38        -0.48537986
  39        -0.00000000
  40         0.00000000
  41         1.25839548
  42        -0.00000000
  43        -0.00000000
  44         0.00000000
  45         0.00000000
  46         0.00000000
  47         0.00000000
  48        -0.00000000
  49        -0.00000000
  50        -0.00000000
  51         0.00000000
  52        -0.00000000
  53         0.00000000
  54        -0.00000000
  55         0.00000000
  56        -0.00000000
  57         0.00000000
  58        -0.00000000
  59         0.00000000
  60        -0.00000000
  61         0.00000000
Sym=     4a  
Ene=     3.0243
Spin= Alpha
Occup=    0.00000
   1         0.00000000
   2         0.00000000
   3         0.00000000
   4         0.00000000
   5         0.00000000
   6         0.00000000
   7         0.00000000
   8         0.00000000
   9         0.00000000
  10         0.00000000
  11         0.00000000
  12         0.00000000
  13         0.00000000
  14        -0.00000000
  15         0.00000000
  16         0.00005414
  17        -0.00000000
  18        -0.00000000
  19        -0.00048381
  20         0.00000000
  21        -0.00000000
  22         0.00233991
  23        -0.00000000
  24         0.00000000
  25        -0.00853733
  26         0.00000000
  27        -0.00000000
  28         0.02698798
  29        -0.00000000
  30        -0.00000000
  31        -0.07842331
  32         0.00000000
  33         0.00000000
  34         0.21105341
  35        -0.00000000
  36        -0.00000000
  37        -0.48537986
  38         0.00000000
  39         0.00000000
  40         1.25839548
  41        -0.00000000
  42        -0.00000000
  43         0.00000000
  44         0.00000000
  45         0.00000000
  46        -0.00000000
  47         0.00000000
  48        -0.00000000
  49         0.00000000
  50        -0.00000000
  51         0.00000000
  52        -0.00000000
  53         0.00000000
  54        -0.00000000
  55         0.00000000
  56        -0.00000000
  57         0.00000000
  58        -0.00000000
  59         0.00000000
  60        -0.00000000
  61         0.00000000
Sym=     5a  
Ene=     3.0243
Spin= Alpha
Occup=    0.00000
   1        -0.00000000
   2        -0.00000000
   3        -0.00000000
   4        -0.00000000
   5        -0.00000000
   6        -0.00000000
   7        -0.00000000
   8        -0.00000000
   9        -0.00000000
  10        -0.00000000
  11        -0.00000000
  12        -0.00000000
  13        -0.00000000
  14         0.00000000
  15         0.00005414
  16         0.00000000
  17         0.00000000
  18        -0.00048381
  19         0.00000000
  20        -0.00000000
  21         0.00233991
  22         0.00000000
  23         0.00000000
  24        -0.00853733
  25         0.00000000
  26        -0.00000000
  27         0.02698798
  28         0.00000000
  29         0.00000000
  30        -0.07842331
  31         0.00000000
  32        -0.00000000
  33         0.21105341
  34         0.00000000
  35         0.00000000
  36        -0.48537986
  37         0.00000000
  38        -0.00000000
  39         1.25839548
  40         0.00000000
  41         0.00000000
  42         0.00000000
  43        -0.00000000
  44        -0.00000000
  45        -0.00000000
  46         0.00000000
  47        -0.00000000
  48         0.00000000
  49        -0.00000000
  50         0.00000000
  51        -0.00000000
  52         0.00000000
  53        -0.00000000
  54         0.00000000
  55        -0.00000000
  56         0.00000000
  57        -0.00000000
  58         0.00000000
  59        -0.00000000
  60         0.00000000
  61        -0.00000000
Sym=     6a  
Ene=     3.0389
Spin= Alpha
Occup=    0.00000
   1        -0.00000018
   2         0.00000216
   3        -0.00001537
   4         0.00008369
   5        -0.00036123
   6         0.00154558
   7        -0.00462920
   8         0.01985248
   9        -0.03793155
  10         0.14627296
  11        -0.27979993
  12         0.67099363
  13        -1.83669818
  14         1.93600635
  15        -0.00000000
  16         0.00000000
  17         0.00000000
  18         0.00000000
  19         0.00000000
  20        -0.00000000
  21         0.00000000
  22        -0.00000000
  23         0.00000000
  24        -0.00000000
  25         0.00000000
  26        -0.00000000
  27         0.00000000
  28         0.00000000
  29         0.00000000
  30         0.00000000
  31         0.00000000
  32        -0.00000000
  33        -0.00000000
  34         0.00000000
  35         0.00000000
  36         0.00000000
  37         0.00000000
  38        -0.00000000
  39        -0.00000000
  40         0.00000000
  41         0.00000000
  42         0.00000000
  43        -0.00000000
  44         0.00000000
  45         0.00000000
  46         0.00000000
  47        -0.00000000
  48         0.00000000
  49        -0.00000000
  50        -0.00000000
  51         0.00000000
  52         0.00000000
  53         0.00000000
  54         0.00000000
  55         0.00000000
  56        -0.00000000
  57        -0.00000000
  58        -0.00000000
  59         0.00000000
  60        -0.00000000
  61         0.00000000
Sym=     7a  
Ene=     3.0954
Spin= Alpha
Occup=    0.00000
   1         0.00000000
   2         0.00000000
   3         0.00000000
   4         0.00000000
   5         0.00000000
   6         0.00000000
   7         0.00000000
   8         0.00000000
   9         0.00000000
  10         0.00000000
  11        -0.00000000
  12        -0.00000000
  13        -0.00000000
  14         0.00000000
  15         0.00000000
  16        -0.00000000
  17        -0.00017520
  18        -0.00000000
  19        -0.00000000
  20         0.00156768
  21         0.00000000
  22        -0.00000000
  23        -0.00760347
  24         0.00000000
  25        -0.00000000
  26         0.02792513
  27        -0.00000000
  28         0.00000000
  29        -0.08961760
  30        -0.00000000
  31        -0.00000000
  32         0.26936035
  33         0.00000000
  34         0.00000000
  35        -0.77967746
  36        -0.00000000
  37        -0.00000000
  38         2.05621769
  39         0.00000000
  40        -0.00000000
  41        -1.01234483
  42         0.00000000
  43         0.00000000
  44        -0.00000000
  45        -0.00000000
  46        -0.00000000
  47        -0.00000000
  48        -0.00000000
  49         0.00000000
  50         0.00000000
  51        -0.00000000
  52         0.00000000
  53        -0.00000000
  54        -0.00000000
  55        -0.00000000
  56         0.00000000
  57        -0.00000000
  58         0.00000000
  59         0.00000000
  60         0.00000000
  61         0.00000000
Sym=     8a  
Ene=     3.0954
Spin= Alpha
Occup=    0.00000
   1         0.00000000
   2         0.00000000
   3         0.00000000
   4         0.00000000
   5         0.00000000
   6         0.00000000
   7         0.00000000
   8         0.00000000
   9         0.00000000
  10         0.00000000
  11         0.00000000
  12         0.00000000
  13         0.00000000
  14        -0.00000000
  15         0.00000000
  16        -0.00017520
  17        -0.00000000
  18        -0.00000000
  19         0.00156768
  20         0.00000000
  21        -0.00000000
  22        -0.00760347
  23        -0.00000000
  24         0.00000000
  25         0.02792513
  26         0.00000000
  27        -0.00000000
  28        -0.08961760
  29        -0.00000000
  30        -0.00000000
  31         0.26936035
  32         0.00000000
  33         0.00000000
  34        -0.77967746
  35        -0.00000000
  36        -0.00000000
  37         2.05621769
  38         0.00000000
  39         0.00000000
  40        -1.01234483
  41        -0.00000000
  42        -0.00000000
  43         0.00000000
  44         0.00000000
  45         0.00000000
  46        -0.00000000
  47         0.00000000
  48        -0.00000000
  49         0.00000000
  50        -0.00000000
  51         0.00000000
  52        -0.00000000
  53         0.00000000
  54        -0.00000000
  55         0.00000000
  56        -0.00000000
  57         0.00000000
  58        -0.00000000
  59         0.00000000
  60        -0.00000000
  61         0.00000000
Sym=     9a  
Ene=     3.0954
Spin= Alpha
Occup=    0.00000
   1        -0.00000000
   2        -0.00000000
   3        -0.00000000
   4        -0.00000000
   5        -0.00000000
   6        -0.00000000
   7        -0.00000000
   8        -0.00000000
   9        -0.00000000
  10         0.00000000
  11        -0.00000000
  12        -0.00000000
  13        -0.00000000
  14         0.00000000
  15        -0.00017520
  16         0.00000000
  17         0.00000000
  18         0.00156768
  19         0.00000000
  20        -0.00000000
  21        -0.00760347
  22         0.00000000
  23         0.00000000
  24         0.02792513
  25         0.00000000
  26        -0.00000000
  27        -0.08961760
  28         0.00000000
  29         0.00000000
  30         0.26936035
  31         0.00000000
  32        -0.00000000
  33        -0.77967746
  34         0.00000000
  35         0.00000000
  36         2.05621769
  37         0.00000000
  38        -0.00000000
  39        -1.01234483
  40         0.00000000
  41         0.00000000
  42         0.00000000
  43         0.00000000
  44        -0.00000000
  45        -0.00000000
  46        -0.00000000
  47        -0.00000000
  48         0.00000000
  49         0.00000000
  50         0.00000000
  51        -0.00000000
  52         0.00000000
  53        -0.00000000
  54         0.00000000
  55        -0.00000000
  56         0.00000000
  57        -0.00000000
  58         0.00000000
  59        -0.00000000
  60         0.00000000
  61        -0.00000000
Sym=    10a  
Ene=     3.1944
Spin= Alpha
Occup=    0.00000
   1         0.00000000
   2         0.00000000
   3        -0.00000000
   4         0.00000000
   5        -0.00000000
   6         0.00000000
   7        -0.00000000
   8         0.00000000
   9        -0.00000000
  10         0.00000000
  11        -0.00000000
  12         0.00000000
  13        -0.00000000
  14         0.00000000
  15         0.00000000
  16        -0.00000000
  17         0.00000000
  18        -0.00000000
  19        -0.00000000
  20        -0.00000000
  21        -0.00000000
  22        -0.00000000
  23         0.00000000
  24         0.00000000
  25        -0.00000000
  26        -0.00000000
  27        -0.00000000
  28         0.00000000
  29         0.00000000
  30        -0.00000000
  31        -0.00000000
  32        -0.00000000
  33         0.00000000
  34         0.00000000
  35         0.00000000
  36        -0.00000000
  37        -0.00000000
  38        -0.00000000
  39         0.00000000
  40        -0.00000000
  41         0.00000000
  42         0.00001138
  43        -0.00847336
  44         0.00895872
  45        -0.00296978
  46        -0.00000000
  47        -0.00005819
  48         0.04332444
  49        -0.04580607
  50         0.01518452
  51         0.00000001
  52         0.00024435
  53        -0.18193062
  54         0.19235163
  55        -0.06376375
  56        -0.00000002
  57        -0.00102653
  58         0.76431279
  59        -0.80809275
  60         0.26787931
  61         0.00000010
Sym=    11a  
Ene=     3.1944
Spin= Alpha
Occup=    0.00000
   1         0.00000000
   2        -0.00000000
   3        -0.00000000
   4        -0.00000000
   5         0.00000000
   6        -0.00000000
   7         0.00000000
   8         0.00000000
   9        -0.00000000
  10         0.00000000
  11        -0.00000000
  12         0.00000000
  13        -0.00000000
  14         0.00000000
  15         0.00000000
  16        -0.00000000
  17         0.00000000
  18        -0.00000000
  19        -0.00000000
  20        -0.00000000
  21        -0.00000000
  22        -0.00000000
  23         0.00000000
  24         0.00000000
  25        -0.00000000
  26        -0.00000000
  27        -0.00000000
  28        -0.00000000
  29         0.00000000
  30         0.00000000
  31         0.00000000
  32        -0.00000000
  33         0.00000000
  34        -0.00000000
  35         0.00000000
  36        -0.00000000
  37         0.00000000
  38        -0.00000000
  39         0.00000000
  40        -0.00000000
  41         0.00000000
  42         0.00000426
  43        -0.00486274
  44        -0.00756445
  45        -0.00894478
  46        -0.00000000
  47        -0.00002176
  48         0.02486325
  49         0.03867715
  50         0.04573481
  51         0.00000000
  52         0.00009138
  53        -0.10440725
  54        -0.16241545
  55        -0.19205237
  56        -0.00000000
  57        -0.00038392
  58         0.43862765
  59         0.68232719
  60         0.80683552
  61         0.00000000
Sym=    12a  
Ene=     3.1944
Spin= Alpha
Occup=    0.00000
   1        -0.00000000
   2         0.00000000
   3        -0.00000000
   4         0.00000000
   5         0.00000000
   6        -0.00000000
   7         0.00000000
   8         0.00000000
   9         0.00000000
  10         0.00000000
  11         0.00000000
  12        -0.00000000
  13         0.00000000
  14         0.00000000
  15         0.00000000
  16        -0.00000000
  17         0.00000000
  18        -0.00000000
  19        -0.00000000
  20        -0.00000000
  21        -0.00000000
  22        -0.00000000
  23         0.00000000
  24         0.00000000
  25        -0.00000000
  26        -0.00000000
  27        -0.00000000
  28        -0.00000000
  29         0.00000000
  30         0.00000000
  31         0.00000000
  32        -0.00000000
  33         0.00000000
  34        -0.00000000
  35         0.00000000
  36        -0.00000000
  37        -0.00000000
  38        -0.00000000
  39         0.00000000
  40        -0.00000000
  41         0.00000000
  42         0.00000684
  43        -0.00808900
  44        -0.00483701
  45         0.00848808
  46         0.00000000
  47        -0.00003499
  48         0.04135920
  49         0.02473171
  50        -0.04339970
  51        -0.00000000
  52         0.00014695
  53        -0.17367805
  54        -0.10385491
  55         0.18224666
  56         0.00000000
  57        -0.00061735
  58         0.72964276
  59         0.43630718
  60        -0.76564053
  61        -0.00000000
Sym=    13a  
Ene=     3.1944
Spin= Alpha
Occup=    0.00000
   1        -0.00000000
   2        -0.00000000
   3         0.00000000
   4        -0.00000000
   5         0.00000000
   6        -0.00000000
   7         0.00000000
   8        -0.00000000
   9         0.00000000
  10        -0.00000000
  11         0.00000000
  12        -0.00000000
  13         0.00000000
  14        -0.00000000
  15        -0.00000000
  16         0.00000000
  17         0.00000000
  18         0.00000000
  19         0.00000000
  20        -0.00000000
  21        -0.00000000
  22         0.00000000
  23         0.00000000
  24        -0.00000000
  25         0.00000000
  26        -0.00000000
  27         0.00000000
  28        -0.00000000
  29         0.00000000
  30         0.00000000
  31         0.00000000
  32        -0.00000000
  33        -0.00000000
  34         0.00000000
  35         0.00000000
  36         0.00000000
  37         0.00000000
  38        -0.00000000
  39        -0.00000000
  40         0.00000000
  41         0.00000000
  42         0.00000003
  43         0.00000000
  44        -0.00000000
  45         0.00000000
  46        -0.01268370
  47        -0.00000015
  48        -0.00000000
  49         0.00000000
  50        -0.00000000
  51         0.06485196
  52         0.00000064
  53         0.00000002
  54        -0.00000002
  55         0.00000001
  56        -0.27233027
  57        -0.00000267
  58        -0.00000007
  59         0.00000007
  60        -0.00000002
  61         1.14409279
Sym=    14a  
Ene=     3.1944
Spin= Alpha
Occup=    0.00000
   1        -0.00000000
   2         0.00000000
   3        -0.00000000
   4         0.00000000
   5        -0.00000000
   6         0.00000000
   7        -0.00000000
   8         0.00000000
   9        -0.00000000
  10         0.00000000
  11        -0.00000000
  12         0.00000000
  13        -0.00000000
  14         0.00000000
  15        -0.00000000
  16         0.00000000
  17         0.00000000
  18         0.00000000
  19        -0.00000000
  20        -0.00000000
  21         0.00000000
  22         0.00000000
  23         0.00000000
  24        -0.00000000
  25        -0.00000000
  26        -0.00000000
  27         0.00000000
  28         0.00000000
  29         0.00000000
  30        -0.00000000
  31        -0.00000000
  32        -0.00000000
  33        -0.00000000
  34         0.00000000
  35         0.00000000
  36         0.00000000
  37        -0.00000000
  38        -0.00000000
  39        -0.00000000
  40         0.00000000
  41         0.00000000
  42        -0.01268369
  43        -0.00001360
  44         0.00000289
  45        -0.00000109
  46        -0.00000003
  47         0.06485192
  48         0.00006953
  49        -0.00001478
  50         0.00000555
  51         0.00000015
  52        -0.27233010
  53        -0.00029199
  54         0.00006205
  55        -0.00002332
  56        -0.00000064
  57         1.14409210
  58         0.00122668
  59        -0.00026066
  60         0.00009796
  61         0.00000267
Sym=    15a  
Ene=     3.2546
Spin= Alpha
Occup=    0.00000
   1         0.00000084
   2        -0.00001030
   3         0.00007390
   4        -0.00039320
   5         0.00180560
   6        -0.00668340
   7         0.02725551
   8        -0.07118158
   9         0.27092533
  10        -0.55092946
  11         1.73397052
  12        -4.33216061
  13         4.39428313
  14        -1.39481730
  15         0.00000000
  16        -0.00000000
  17         0.00000000
  18        -0.00000000
  19         0.00000000
  20        -0.00000000
  21        -0.00000000
  22        -0.00000000
  23         0.00000000
  24         0.00000000
  25         0.00000000
  26         0.00000000
  27        -0.00000000
  28        -0.00000000
  29        -0.00000000
  30         0.00000000
  31         0.00000000
  32         0.00000000
  33        -0.00000000
  34        -0.00000000
  35        -0.00000000
  36        -0.00000000
  37         0.00000000
  38         0.00000000
  39         0.00000000
  40        -0.00000000
  41         0.00000000
  42        -0.00000000
  43         0.00000000
  44        -0.00000000
  45        -0.00000000
  46         0.00000000
  47         0.00000000
  48        -0.00000000
  49        -0.00000000
  50         0.00000000
  51        -0.00000000
  52        -0.00000000
  53         0.00000000
  54         0.00000000
  55         0.00000000
  56         0.00000000
  57         0.00000000
  58         0.00000000
  59        -0.00000000
  60        -0.00000000
  61        -0.00000000
Sym=    16a  
Ene=     3.2725
Spin= Alpha
Occup=    0.00000
   1        -0.00000000
   2        -0.00000000
   3        -0.00000000
   4        -0.00000000
   5        -0.00000000
   6        -0.00000000
   7        -0.00000000
   8        -0.00000000
   9        -0.00000000
  10        -0.00000000
  11         0.00000000
  12         0.00000000
  13         0.00000000
  14        -0.00000000
  15        -0.00000000
  16         0.00000000
  17         0.00048206
  18         0.00000000
  19         0.00000000
  20        -0.00432606
  21        -0.00000000
  22        -0.00000000
  23         0.02112083
  24        -0.00000000
  25         0.00000000
  26        -0.07873550
  27         0.00000000
  28         0.00000000
  29         0.26110420
  30         0.00000000
  31         0.00000000
  32        -0.83986870
  33        -0.00000000
  34         0.00000000
  35         2.70051420
  36         0.00000000
  37         0.00000000
  38        -2.09522173
  39        -0.00000000
  40         0.00000000
  41         0.62439656
  42        -0.00000000
  43        -0.00000000
  44        -0.00000000
  45        -0.00000000
  46         0.00000000
  47        -0.00000000
  48         0.00000000
  49        -0.00000000
  50         0.00000000
  51        -0.00000000
  52        -0.00000000
  53        -0.00000000
  54         0.00000000
  55        -0.00000000
  56         0.00000000
  57        -0.00000000
  58         0.00000000
  59        -0.00000000
  60         0.00000000
  61        -0.00000000
Sym=    17a  
Ene=     3.2725
Spin= Alpha
Occup=    0.00000
   1         0.00000000
   2         0.00000000
   3         0.00000000
   4         0.00000000
   5         0.00000000
   6         0.00000000
   7         0.00000000
   8         0.00000000
   9         0.00000000
  10         0.00000000
  11         0.00000000
  12         0.00000000
  13         0.00000000
  14        -0.00000000
  15         0.00000000
  16         0.00048206
  17        -0.00000000
  18        -0.00000000
  19        -0.00432606
  20         0.00000000
  21         0.00000000
  22         0.02112083
  23        -0.00000000
  24         0.00000000
  25        -0.07873550
  26         0.00000000
  27         0.00000000
  28         0.26110420
  29        -0.00000000
  30        -0.00000000
  31        -0.83986870
  32         0.00000000
  33         0.00000000
  34         2.70051420
  35        -0.00000000
  36        -0.00000000
  37        -2.09522173
  38         0.00000000
  39         0.00000000
  40         0.62439656
  41        -0.00000000
  42        -0.00000000
  43         0.00000000
  44         0.00000000
  45         0.00000000
  46        -0.00000000
  47         0.00000000
  48        -0.00000000
  49         0.00000000
  50        -0.00000000
  51         0.00000000
  52        -0.00000000
  53         0.00000000
  54        -0.00000000
  55         0.00000000
  56        -0.00000000
  57         0.00000000
  58        -0.00000000
  59         0.00000000
  60        -0.00000000
  61         0.00000000
Sym=    18a  
Ene=     3.2725
Spin= Alpha
Occup=    0.00000
   1        -0.00000000
   2        -0.00000000
   3        -0.00000000
   4        -0.00000000
   5        -0.00000000
   6        -0.00000000
   7        -0.00000000
   8        -0.00000000
   9        -0.00000000
  10        -0.00000000
  11        -0.00000000
  12        -0.00000000
  13        -0.00000000
  14         0.00000000
  15         0.00048206
  16         0.00000000
  17         0.00000000
  18        -0.00432606
  19         0.00000000
  20        -0.00000000
  21         0.02112083
  22         0.00000000
  23         0.00000000
  24        -0.07873550
  25         0.00000000
  26        -0.00000000
  27         0.26110420
  28         0.00000000
  29         0.00000000
  30        -0.83986870
  31         0.00000000
  32        -0.00000000
  33         2.70051420
  34         0.00000000
  35         0.00000000
  36        -2.09522173
  37         0.00000000
  38        -0.00000000
  39         0.62439656
  40         0.00000000
  41         0.00000000
  42         0.00000000
  43        -0.00000000
  44        -0.00000000
  45        -0.00000000
  46         0.00000000
  47        -0.00000000
  48         0.00000000
  49        -0.00000000
  50         0.00000000
  51        -0.00000000
  52         0.00000000
  53        -0.00000000
  54         0.00000000
  55        -0.00000000
  56         0.00000000
  57        -0.00000000
  58         0.00000000
  59        -0.00000000
  60         0.00000000
  61        -0.00000000
Sym=    19a  
Ene=     3.6948
Spin= Alpha
Occup=    0.00000
   1         0.00000000
   2         0.00000000
   3         0.00000000
   4         0.00000000
   5        -0.00000000
   6        -0.00000000
   7        -0.00000000
   8         0.00000000
   9        -0.00000000
  10         0.00000000
  11        -0.00000000
  12         0.00000000
  13        -0.00000000
  14         0.00000000
  15        -0.00000000
  16         0.00000000
  17         0.00000000
  18         0.00000000
  19        -0.00000000
  20        -0.00000000
  21         0.00000000
  22         0.00000000
  23         0.00000000
  24        -0.00000000
  25        -0.00000000
  26        -0.00000000
  27         0.00000000
  28         0.00000000
  29         0.00000000
  30         0.00000000
  31        -0.00000000
  32        -0.00000000
  33        -0.00000000
  34         0.00000000
  35         0.00000000
  36         0.00000000
  37         0.00000000
  38        -0.00000000
  39        -0.00000000
  40         0.00000000
  41         0.00000000
  42        -0.00002052
  43         0.04474888
  44         0.01838297
  45         0.00677855
  46         0.00000000
  47         0.00011504
  48        -0.25092396
  49        -0.10308028
  50        -0.03800988
  51        -0.00000000
  52        -0.00061600
  53         1.34362271
  54         0.55196406
  55         0.20353152
  56         0.00000000
  57         0.00029317
  58        -0.63946118
  59        -0.26269249
  60        -0.09686536
  61        -0.00000000
Sym=    20a  
Ene=     3.6948
Spin= Alpha
Occup=    0.00000
   1         0.00000000
   2        -0.00000000
   3         0.00000000
   4        -0.00000000
   5         0.00000000
   6        -0.00000000
   7         0.00000000
   8        -0.00000000
   9         0.00000000
  10        -0.00000000
  11         0.00000000
  12        -0.00000000
  13         0.00000000
  14        -0.00000000
  15         0.00000000
  16        -0.00000000
  17         0.00000000
  18        -0.00000000
  19        -0.00000000
  20        -0.00000000
  21        -0.00000000
  22        -0.00000000
  23         0.00000000
  24         0.00000000
  25        -0.00000000
  26        -0.00000000
  27        -0.00000000
  28        -0.00000000
  29         0.00000000
  30        -0.00000000
  31        -0.00000000
  32        -0.00000000
  33         0.00000000
  34        -0.00000000
  35         0.00000000
  36        -0.00000000
  37        -0.00000000
  38        -0.00000000
  39         0.00000000
  40        -0.00000000
  41         0.00000000
  42         0.00002094
  43        -0.01846042
  44         0.04522129
  45        -0.00076980
  46         0.00000000
  47        -0.00011745
  48         0.10351456
  49        -0.25357293
  50         0.00431657
  51        -0.00000000
  52         0.00062889
  53        -0.55428950
  54         1.35780716
  55        -0.02311392
  56         0.00000000
  57        -0.00029930
  58         0.26379921
  59        -0.64621189
  60         0.01100045
  61        -0.00000000
Sym=    21a  
Ene=     3.6948
Spin= Alpha
Occup=    0.00000
   1         0.00000000
   2        -0.00000000
   3         0.00000000
   4        -0.00000000
   5         0.00000000
   6        -0.00000000
   7         0.00000000
   8        -0.00000000
   9         0.00000000
  10        -0.00000000
  11         0.00000000
  12        -0.00000000
  13         0.00000000
  14        -0.00000000
  15         0.00000000
  16        -0.00000000
  17        -0.00000000
  18        -0.00000000
  19        -0.00000000
  20         0.00000000
  21        -0.00000000
  22        -0.00000000
  23        -0.00000000
  24         0.00000000
  25         0.00000000
  26         0.00000000
  27        -0.00000000
  28        -0.00000000
  29        -0.00000000
  30        -0.00000000
  31         0.00000000
  32         0.00000000
  33         0.00000000
  34        -0.00000000
  35        -0.00000000
  36        -0.00000000
  37        -0.00000000
  38         0.00000000
  39         0.00000000
  40        -0.00000000
  41        -0.00000000
  42         0.04885022
  43         0.00002586
  44        -0.00001191
  45         0.00000945
  46        -0.00000157
  47        -0.27392173
  48        -0.00014499
  49         0.00006678
  50        -0.00005297
  51         0.00000880
  52         1.46676888
  53         0.00077639
  54        -0.00035758
  55         0.00028366
  56        -0.00004712
  57        -0.69806930
  58        -0.00036950
  59         0.00017018
  60        -0.00013500
  61         0.00002242
Sym=    22a  
Ene=     3.6948
Spin= Alpha
Occup=    0.00000
   1         0.00000000
   2         0.00000000
   3         0.00000000
   4        -0.00000000
   5         0.00000000
   6        -0.00000000
   7         0.00000000
   8        -0.00000000
   9         0.00000000
  10        -0.00000000
  11         0.00000000
  12        -0.00000000
  13         0.00000000
  14        -0.00000000
  15         0.00000000
  16        -0.00000000
  17         0.00000000
  18        -0.00000000
  19        -0.00000000
  20        -0.00000000
  21        -0.00000000
  22        -0.00000000
  23         0.00000000
  24         0.00000000
  25        -0.00000000
  26        -0.00000000
  27        -0.00000000
  28        -0.00000000
  29         0.00000000
  30        -0.00000000
  31        -0.00000000
  32        -0.00000000
  33         0.00000000
  34        -0.00000000
  35         0.00000000
  36        -0.00000000
  37        -0.00000000
  38        -0.00000000
  39         0.00000000
  40        -0.00000000
  41         0.00000000
  42         0.00000157
  43        -0.00000001
  44        -0.00000000
  45         0.00000005
  46         0.04885023
  47        -0.00000880
  48         0.00000003
  49         0.00000001
  50        -0.00000029
  51        -0.27392178
  52         0.00004712
  53        -0.00000018
  54        -0.00000007
  55         0.00000154
  56         1.46676916
  57        -0.00002242
  58         0.00000009
  59         0.00000003
  60        -0.00000073
  61        -0.69806943
Sym=    23a  
Ene=     3.6948
Spin= Alpha
Occup=    0.00000
   1        -0.00000000
   2         0.00000000
   3        -0.00000000
   4         0.00000000
   5        -0.00000000
   6         0.00000000
   7        -0.00000000
   8         0.00000000
   9        -0.00000000
  10         0.00000000
  11        -0.00000000
  12        -0.00000000
  13         0.00000000
  14        -0.00000000
  15         0.00000000
  16         0.00000000
  17        -0.00000000
  18        -0.00000000
  19        -0.00000000
  20         0.00000000
  21         0.00000000
  22         0.00000000
  23        -0.00000000
  24        -0.00000000
  25        -0.00000000
  26         0.00000000
  27         0.00000000
  28         0.00000000
  29        -0.00000000
  30        -0.00000000
  31        -0.00000000
  32         0.00000000
  33         0.00000000
  34         0.00000000
  35        -0.00000000
  36         0.00000000
  37        -0.00000000
  38         0.00000000
  39        -0.00000000
  40         0.00000000
  41        -0.00000000
  42        -0.00000633
  43        -0.00656468
  44        -0.00185643
  45         0.04837152
  46        -0.00000005
  47         0.00003551
  48         0.03681064
  49         0.01040970
  50        -0.27123745
  51         0.00000029
  52        -0.00019013
  53        -0.19710996
  54        -0.05574083
  55         1.45239539
  56        -0.00000154
  57         0.00009049
  58         0.09380920
  59         0.02652835
  60        -0.69122862
  61         0.00000073
Sym=    24a  
Ene=     3.6998
Spin= Alpha
Occup=    0.00000
   1         0.00000000
   2         0.00000000
   3         0.00000000
   4         0.00000000
   5         0.00000000
   6         0.00000000
   7         0.00000000
   8         0.00000000
   9         0.00000000
  10         0.00000000
  11        -0.00000000
  12        -0.00000000
  13        -0.00000000
  14         0.00000000
  15         0.00000000
  16        -0.00000000
  17        -0.00131252
  18        -0.00000000
  19        -0.00000000
  20         0.01186021
  21         0.00000000
  22         0.00000000
  23        -0.05879218
  24         0.00000000
  25        -0.00000000
  26         0.22666064
  27        -0.00000000
  28         0.00000000
  29        -0.80632728
  30        -0.00000000
  31        -0.00000000
  32         2.90007643
  33         0.00000000
  34         0.00000000
  35        -2.83517965
  36        -0.00000000
  37        -0.00000000
  38         1.40373043
  39         0.00000000
  40        -0.00000000
  41        -0.36341970
  42         0.00000000
  43         0.00000000
  44        -0.00000000
  45        -0.00000000
  46        -0.00000000
  47         0.00000000
  48        -0.00000000
  49         0.00000000
  50         0.00000000
  51        -0.00000000
  52         0.00000000
  53        -0.00000000
  54        -0.00000000
  55        -0.00000000
  56         0.00000000
  57         0.00000000
  58         0.00000000
  59         0.00000000
  60         0.00000000
  61         0.00000000
Sym=    25a  
Ene=     3.6998
Spin= Alpha
Occup=    0.00000
   1         0.00000000
   2         0.00000000
   3         0.00000000
   4         0.00000000
   5         0.00000000
   6         0.00000000
   7         0.00000000
   8         0.00000000
   9         0.00000000
  10         0.00000000
  11         0.00000000
  12         0.00000000
  13         0.00000000
  14        -0.00000000
  15         0.00000000
  16        -0.00131252
  17        -0.00000000
  18        -0.00000000
  19         0.01186021
  20         0.00000000
  21        -0.00000000
  22        -0.05879218
  23        -0.00000000
  24         0.00000000
  25         0.22666064
  26         0.00000000
  27        -0.00000000
  28        -0.80632728
  29        -0.00000000
  30        -0.00000000
  31         2.90007643
  32         0.00000000
  33         0.00000000
  34        -2.83517965
  35        -0.00000000
  36        -0.00000000
  37         1.40373043
  38         0.00000000
  39         0.00000000
  40        -0.36341970
  41        -0.00000000
  42        -0.00000000
  43         0.00000000
  44         0.00000000
  45         0.00000000
  46        -0.00000000
  47         0.00000000
  48        -0.00000000
  49         0.00000000
  50        -0.00000000
  51         0.00000000
  52        -0.00000000
  53         0.00000000
  54        -0.00000000
  55         0.00000000
  56        -0.00000000
  57         0.00000000
  58        -0.00000000
  59         0.00000000
  60        -0.00000000
  61         0.00000000
Sym=    26a  
Ene=     3.6998
Spin= Alpha
Occup=    0.00000
   1         0.00000000
   2         0.00000000
   3         0.00000000
   4         0.00000000
   5         0.00000000
   6         0.00000000
   7         0.00000000
   8         0.00000000
   9         0.00000000
  10         0.00000000
  11         0.00000000
  12         0.00000000
  13         0.00000000
  14        -0.00000000
  15        -0.00131252
  16        -0.00000000
  17        -0.00000000
  18         0.01186021
  19        -0.00000000
  20         0.00000000
  21        -0.05879218
  22        -0.00000000
  23        -0.00000000
  24         0.22666064
  25        -0.00000000
  26         0.00000000
  27        -0.80632728
  28        -0.00000000
  29        -0.00000000
  30         2.90007643
  31        -0.00000000
  32         0.00000000
  33        -2.83517965
  34        -0.00000000
  35        -0.00000000
  36         1.40373043
  37        -0.00000000
  38         0.00000000
  39        -0.36341970
  40        -0.00000000
  41        -0.00000000
  42        -0.00000000
  43         0.00000000
  44         0.00000000
  45         0.00000000
  46         0.00000000
  47         0.00000000
  48        -0.00000000
  49        -0.00000000
  50        -0.00000000
  51         0.00000000
  52        -0.00000000
  53         0.00000000
  54        -0.00000000
  55         0.00000000
  56        -0.00000000
  57         0.00000000
  58        -0.00000000
  59         0.00000000
  60        -0.00000000
  61         0.00000000
Sym=    27a  
Ene=     4.0228
Spin= Alpha
Occup=    0.00000
   1        -0.00000313
   2         0.00003820
   3        -0.00027251
   4         0.00147673
   5        -0.00648526
   6         0.02696178
   7        -0.08840872
   8         0.34685650
   9        -0.82823014
  10         3.10792919
  11        -6.31760762
  12         5.86213163
  13        -2.70443649
  14         0.67180454
  15        -0.00000000
  16         0.00000000
  17         0.00000000
  18         0.00000000
  19         0.00000000
  20        -0.00000000
  21         0.00000000
  22         0.00000000
  23         0.00000000
  24        -0.00000000
  25         0.00000000
  26        -0.00000000
  27         0.00000000
  28         0.00000000
  29         0.00000000
  30         0.00000000
  31         0.00000000
  32        -0.00000000
  33        -0.00000000
  34         0.00000000
  35         0.00000000
  36         0.00000000
  37         0.00000000
  38        -0.00000000
  39        -0.00000000
  40         0.00000000
  41         0.00000000
  42         0.00000000
  43         0.00000000
  44        -0.00000000
  45        -0.00000000
  46        -0.00000000
  47        -0.00000000
  48         0.00000000
  49         0.00000000
  50         0.00000000
  51         0.00000000
  52         0.00000000
  53        -0.00000000
  54        -0.00000000
  55        -0.00000000
  56         0.00000000
  57        -0.00000000
  58         0.00000000
  59         0.00000000
  60         0.00000000
  61        -0.00000000
Sym=    28a  
Ene=     4.7411
Spin= Alpha
Occup=    0.00000
   1         0.00000000
   2         0.00000000
   3         0.00000000
   4         0.00000000
   5         0.00000000
   6         0.00000000
   7         0.00000000
   8         0.00000000
   9        -0.00000000
  10        -0.00000000
  11         0.00000000
  12         0.00000000
  13         0.00000000
  14        -0.00000000
  15        -0.00000000
  16         0.00000000
  17         0.00365297
  18         0.00000000
  19         0.00000000
  20        -0.03355060
  21        -0.00000000
  22        -0.00000000
  23         0.17223192
  24        -0.00000000
  25         0.00000000
  26        -0.71464487
  27         0.00000000
  28        -0.00000000
  29         2.86764427
  30         0.00000000
  31         0.00000000
  32        -3.05078464
  33        -0.00000000
  34        -0.00000000
  35         1.90124666
  36         0.00000000
  37         0.00000000
  38        -0.82579696
  39        -0.00000000
  40         0.00000000
  41         0.21096474
  42        -0.00000000
  43        -0.00000000
  44         0.00000000
  45         0.00000000
  46         0.00000000
  47         0.00000000
  48        -0.00000000
  49        -0.00000000
  50        -0.00000000
  51         0.00000000
  52        -0.00000000
  53         0.00000000
  54         0.00000000
  55         0.00000000
  56        -0.00000000
  57         0.00000000
  58        -0.00000000
  59         0.00000000
  60        -0.00000000
  61        -0.00000000
Sym=    29a  
Ene=     4.7411
Spin= Alpha
Occup=    0.00000
   1         0.00000000
   2         0.00000000
   3         0.00000000
   4         0.00000000
   5         0.00000000
   6         0.00000000
   7         0.00000000
   8         0.00000000
   9         0.00000000
  10         0.00000000
  11         0.00000000
  12         0.00000000
  13         0.00000000
  14        -0.00000000
  15         0.00000000
  16         0.00365297
  17        -0.00000000
  18        -0.00000000
  19        -0.03355060
  20         0.00000000
  21         0.00000000
  22         0.17223192
  23        -0.00000000
  24         0.00000000
  25        -0.71464487
  26         0.00000000
  27        -0.00000000
  28         2.86764427
  29        -0.00000000
  30        -0.00000000
  31        -3.05078464
  32         0.00000000
  33         0.00000000
  34         1.90124666
  35        -0.00000000
  36        -0.00000000
  37        -0.82579696
  38         0.00000000
  39         0.00000000
  40         0.21096474
  41        -0.00000000
  42        -0.00000000
  43         0.00000000
  44         0.00000000
  45         0.00000000
  46        -0.00000000
  47         0.00000000
  48        -0.00000000
  49         0.00000000
  50        -0.00000000
  51         0.00000000
  52        -0.00000000
  53         0.00000000
  54        -0.00000000
  55         0.00000000
  56        -0.00000000
  57         0.00000000
  58        -0.00000000
  59         0.00000000
  60        -0.00000000
  61         0.00000000
Sym=    30a  
Ene=     4.7411
Spin= Alpha
Occup=    0.00000
   1        -0.00000000
   2        -0.00000000
   3        -0.00000000
   4        -0.00000000
   5        -0.00000000
   6        -0.00000000
   7        -0.00000000
   8        -0.00000000
   9        -0.00000000
  10        -0.00000000
  11        -0.00000000
  12        -0.00000000
  13        -0.00000000
  14         0.00000000
  15         0.00365297
  16         0.00000000
  17         0.00000000
  18        -0.03355060
  19         0.00000000
  20        -0.00000000
  21         0.17223192
  22         0.00000000
  23         0.00000000
  24        -0.71464487
  25         0.00000000
  26        -0.00000000
  27         2.86764427
  28         0.00000000
  29         0.00000000
  30        -3.05078464
  31         0.00000000
  32        -0.00000000
  33         1.90124666
  34         0.00000000
  35         0.00000000
  36        -0.82579696
  37         0.00000000
  38        -0.00000000
  39         0.21096474
  40         0.00000000
  41         0.00000000
  42         0.00000000
  43        -0.00000000
  44        -0.00000000
  45        -0.00000000
  46        -0.00000000
  47        -0.00000000
  48         0.00000000
  49         0.00000000
  50         0.00000000
  51        -0.00000000
  52         0.00000000
  53        -0.00000000
  54         0.00000000
  55        -0.00000000
  56         0.00000000
  57        -0.00000000
  58         0.00000000
  59        -0.00000000
  60         0.00000000
  61        -0.00000000
Sym=    31a  
Ene=     5.1102
Spin= Alpha
Occup=    0.00000
   1         0.00000000
   2        -0.00000000
   3         0.00000000
   4        -0.00000000
   5         0.00000000
   6        -0.00000000
   7         0.00000000
   8        -0.00000000
   9         0.00000000
  10        -0.00000000
  11         0.00000000
  12        -0.00000000
  13        -0.00000000
  14         0.00000000
  15        -0.00000000
  16         0.00000000
  17        -0.00000000
  18         0.00000000
  19         0.00000000
  20         0.00000000
  21         0.00000000
  22         0.00000000
  23        -0.00000000
  24        -0.00000000
  25         0.00000000
  26         0.00000000
  27         0.00000000
  28         0.00000000
  29        -0.00000000
  30        -0.00000000
  31         0.00000000
  32         0.00000000
  33        -0.00000000
  34         0.00000000
  35        -0.00000000
  36         0.00000000
  37         0.00000000
  38         0.00000000
  39        -0.00000000
  40         0.00000000
  41        -0.00000000
  42        -0.21186938
  43        -0.00020612
  44         0.00008936
  45        -0.00014633
  46         0.00000001
  47         1.52465802
  48         0.00148327
  49        -0.00064303
  50         0.00105305
  51        -0.00000010
  52        -1.00464880
  53        -0.00097737
  54         0.00042372
  55        -0.00069389
  56         0.00000006
  57         0.34029401
  58         0.00033106
  59        -0.00014352
  60         0.00023503
  61        -0.00000002
Sym=    32a  
Ene=     5.1102
Spin= Alpha
Occup=    0.00000
   1        -0.00000000
   2         0.00000000
   3        -0.00000000
   4         0.00000000
   5        -0.00000000
   6         0.00000000
   7        -0.00000000
   8         0.00000000
   9        -0.00000000
  10         0.00000000
  11        -0.00000000
  12         0.00000000
  13        -0.00000000
  14         0.00000000
  15         0.00000000
  16        -0.00000000
  17         0.00000000
  18        -0.00000000
  19        -0.00000000
  20        -0.00000000
  21        -0.00000000
  22        -0.00000000
  23         0.00000000
  24         0.00000000
  25         0.00000000
  26        -0.00000000
  27        -0.00000000
  28        -0.00000000
  29         0.00000000
  30        -0.00000000
  31         0.00000000
  32        -0.00000000
  33         0.00000000
  34        -0.00000000
  35         0.00000000
  36        -0.00000000
  37        -0.00000000
  38        -0.00000000
  39         0.00000000
  40        -0.00000000
  41         0.00000000
  42         0.00023195
  43        -0.20614264
  44        -0.00520925
  45        -0.04864902
  46        -0.00000000
  47        -0.00166916
  48         1.48344716
  49         0.03748687
  50         0.35008892
  51         0.00000002
  52         0.00109987
  53        -0.97749357
  54        -0.02470137
  55        -0.23068544
  56        -0.00000001
  57        -0.00037255
  58         0.33109601
  59         0.00836683
  60         0.07813763
  61         0.00000000
Sym=    33a  
Ene=     5.1102
Spin= Alpha
Occup=    0.00000
   1         0.00000000
   2         0.00000000
   3        -0.00000000
   4         0.00000000
   5        -0.00000000
   6         0.00000000
   7        -0.00000000
   8         0.00000000
   9        -0.00000000
  10         0.00000000
  11        -0.00000000
  12         0.00000000
  13        -0.00000000
  14         0.00000000
  15        -0.00000000
  16         0.00000000
  17         0.00000000
  18         0.00000000
  19         0.00000000
  20        -0.00000000
  21        -0.00000000
  22         0.00000000
  23         0.00000000
  24        -0.00000000
  25         0.00000000
  26        -0.00000000
  27         0.00000000
  28         0.00000000
  29         0.00000000
  30         0.00000000
  31         0.00000000
  32        -0.00000000
  33        -0.00000000
  34         0.00000000
  35         0.00000000
  36         0.00000000
  37         0.00000000
  38        -0.00000000
  39        -0.00000000
  40         0.00000000
  41         0.00000000
  42         0.00007728
  43         0.04880972
  44        -0.03648744
  45        -0.20291618
  46        -0.00000000
  47        -0.00055610
  48        -0.35124531
  49         0.26257157
  50         1.46022888
  51         0.00000000
  52         0.00036643
  53         0.23144743
  54        -0.17301730
  55        -0.96219426
  56        -0.00000000
  57        -0.00012412
  58        -0.07839573
  59         0.05860431
  60         0.32591383
  61         0.00000000
Sym=    34a  
Ene=     5.1102
Spin= Alpha
Occup=    0.00000
   1         0.00000000
   2        -0.00000000
   3         0.00000000
   4        -0.00000000
   5         0.00000000
   6        -0.00000000
   7         0.00000000
   8        -0.00000000
   9         0.00000000
  10        -0.00000000
  11         0.00000000
  12        -0.00000000
  13         0.00000000
  14        -0.00000000
  15         0.00000000
  16        -0.00000000
  17        -0.00000000
  18        -0.00000000
  19        -0.00000000
  20         0.00000000
  21         0.00000000
  22        -0.00000000
  23        -0.00000000
  24         0.00000000
  25        -0.00000000
  26         0.00000000
  27        -0.00000000
  28        -0.00000000
  29        -0.00000000
  30        -0.00000000
  31        -0.00000000
  32         0.00000000
  33         0.00000000
  34        -0.00000000
  35        -0.00000000
  36        -0.00000000
  37        -0.00000000
  38         0.00000000
  39         0.00000000
  40        -0.00000000
  41        -0.00000000
  42        -0.00011005
  43        -0.00338917
  44        -0.20863899
  45         0.03670122
  46         0.00000000
  47         0.00079192
  48         0.02438918
  49         1.50141143
  50        -0.26410991
  51        -0.00000000
  52        -0.00052182
  53        -0.01607086
  54        -0.98933083
  55         0.17403097
  56         0.00000000
  57         0.00017675
  58         0.00544351
  59         0.33510552
  60        -0.05894766
  61        -0.00000000
Sym=    35a  
Ene=     5.1102
Spin= Alpha
Occup=    0.00000
   1         0.00000000
   2        -0.00000000
   3         0.00000000
   4        -0.00000000
   5         0.00000000
   6        -0.00000000
   7         0.00000000
   8        -0.00000000
   9         0.00000000
  10        -0.00000000
  11         0.00000000
  12        -0.00000000
  13         0.00000000
  14        -0.00000000
  15        -0.00000000
  16         0.00000000
  17        -0.00000000
  18         0.00000000
  19        -0.00000000
  20         0.00000000
  21         0.00000000
  22         0.00000000
  23        -0.00000000
  24        -0.00000000
  25        -0.00000000
  26         0.00000000
  27         0.00000000
  28         0.00000000
  29        -0.00000000
  30         0.00000000
  31        -0.00000000
  32         0.00000000
  33        -0.00000000
  34         0.00000000
  35        -0.00000000
  36         0.00000000
  37        -0.00000000
  38         0.00000000
  39        -0.00000000
  40         0.00000000
  41        -0.00000000
  42        -0.00000001
  43         0.00000000
  44         0.00000000
  45         0.00000000
  46        -0.21186955
  47         0.00000010
  48        -0.00000002
  49        -0.00000000
  50        -0.00000001
  51         1.52465924
  52        -0.00000006
  53         0.00000001
  54         0.00000000
  55         0.00000000
  56        -1.00464960
  57         0.00000002
  58        -0.00000000
  59        -0.00000000
  60        -0.00000000
  61         0.34029428
Sym=    36a  
Ene=     6.3352
Spin= Alpha
Occup=    0.00000
   1        -0.00001031
   2         0.00012583
   3        -0.00090234
   4         0.00483418
   5        -0.02209716
   6         0.08551442
   7        -0.34255546
   8         1.06075008
   9        -4.16702439
  10         7.45212354
  11        -6.28901081
  12         3.36596789
  13        -1.47408800
  14         0.34562832
  15        -0.00000000
  16         0.00000000
  17         0.00000000
  18         0.00000000
  19         0.00000000
  20        -0.00000000
  21        -0.00000000
  22         0.00000000
  23         0.00000000
  24        -0.00000000
  25         0.00000000
  26        -0.00000000
  27         0.00000000
  28         0.00000000
  29         0.00000000
  30         0.00000000
  31         0.00000000
  32        -0.00000000
  33        -0.00000000
  34         0.00000000
  35         0.00000000
  36         0.00000000
  37         0.00000000
  38        -0.00000000
  39        -0.00000000
  40         0.00000000
  41         0.00000000
  42         0.00000000
  43        -0.00000000
  44        -0.00000000
  45         0.00000000
  46         0.00000000
  47         0.00000000
  48         0.00000000
  49         0.00000000
  50        -0.00000000
  51         0.00000000
  52        -0.00000000
  53        -0.00000000
  54        -0.00000000
  55         0.00000000
  56        -0.00000000
  57         0.00000000
  58         0.00000000
  59         0.00000000
  60        -0.00000000
  61         0.00000000
Sym=    37a  
Ene=     7.3443
Spin= Alpha
Occup=    0.00000
   1        -0.00000000
   2        -0.00000000
   3        -0.00000000
   4        -0.00000000
   5        -0.00000000
   6        -0.00000000
   7        -0.00000000
   8        -0.00000000
   9         0.00000000
  10         0.00000000
  11        -0.00000000
  12        -0.00000000
  13        -0.00000000
  14         0.00000000
  15         0.00000000
  16        -0.00000000
  17        -0.01060309
  18        -0.00000000
  19        -0.00000000
  20         0.10127846
  21         0.00000000
  22         0.00000000
  23        -0.56339860
  24         0.00000000
  25        -0.00000000
  26         2.67993504
  27        -0.00000000
  28         0.00000000
  29        -2.96408760
  30        -0.00000000
  31        -0.00000000
  32         2.01107460
  33         0.00000000
  34         0.00000000
  35        -1.10320054
  36        -0.00000000
  37        -0.00000000
  38         0.47313604
  39         0.00000000
  40        -0.00000000
  41        -0.12253614
  42         0.00000000
  43         0.00000000
  44        -0.00000000
  45        -0.00000000
  46        -0.00000000
  47        -0.00000000
  48         0.00000000
  49         0.00000000
  50         0.00000000
  51        -0.00000000
  52         0.00000000
  53        -0.00000000
  54        -0.00000000
  55        -0.00000000
  56         0.00000000
  57        -0.00000000
  58         0.00000000
  59        -0.00000000
  60         0.00000000
  61         0.00000000
Sym=    38a  
Ene=     7.3443
Spin= Alpha
Occup=    0.00000
   1         0.00000000
   2         0.00000000
   3         0.00000000
   4         0.00000000
   5         0.00000000
   6         0.00000000
   7         0.00000000
   8         0.00000000
   9         0.00000000
  10         0.00000000
  11         0.00000000
  12         0.00000000
  13         0.00000000
  14        -0.00000000
  15         0.00000000
  16        -0.01060309
  17        -0.00000000
  18        -0.00000000
  19         0.10127846
  20         0.00000000
  21         0.00000000
  22        -0.56339860
  23        -0.00000000
  24         0.00000000
  25         2.67993504
  26         0.00000000
  27        -0.00000000
  28        -2.96408760
  29        -0.00000000
  30        -0.00000000
  31         2.01107460
  32         0.00000000
  33         0.00000000
  34        -1.10320054
  35        -0.00000000
  36        -0.00000000
  37         0.47313604
  38         0.00000000
  39         0.00000000
  40        -0.12253614
  41        -0.00000000
  42        -0.00000000
  43         0.00000000
  44         0.00000000
  45         0.00000000
  46        -0.00000000
  47         0.00000000
  48        -0.00000000
  49         0.00000000
  50        -0.00000000
  51         0.00000000
  52        -0.00000000
  53         0.00000000
  54        -0.00000000
  55         0.00000000
  56        -0.00000000
  57         0.00000000
  58        -0.00000000
  59         0.00000000
  60        -0.00000000
  61         0.00000000
Sym=    39a  
Ene=     7.3443
Spin= Alpha
Occup=    0.00000
   1        -0.00000000
   2        -0.00000000
   3        -0.00000000
   4        -0.00000000
   5        -0.00000000
   6        -0.00000000
   7        -0.00000000
   8        -0.00000000
   9        -0.00000000
  10         0.00000000
  11        -0.00000000
  12        -0.00000000
  13        -0.00000000
  14         0.00000000
  15        -0.01060309
  16         0.00000000
  17         0.00000000
  18         0.10127846
  19         0.00000000
  20        -0.00000000
  21        -0.56339860
  22         0.00000000
  23         0.00000000
  24         2.67993504
  25         0.00000000
  26        -0.00000000
  27        -2.96408760
  28         0.00000000
  29         0.00000000
  30         2.01107460
  31         0.00000000
  32        -0.00000000
  33        -1.10320054
  34         0.00000000
  35         0.00000000
  36         0.47313604
  37         0.00000000
  38        -0.00000000
  39        -0.12253614
  40         0.00000000
  41         0.00000000
  42         0.00000000
  43         0.00000000
  44        -0.00000000
  45        -0.00000000
  46        -0.00000000
  47        -0.00000000
  48         0.00000000
  49         0.00000000
  50         0.00000000
  51        -0.00000000
  52         0.00000000
  53        -0.00000000
  54         0.00000000
  55        -0.00000000
  56         0.00000000
  57        -0.00000000
  58         0.00000000
  59        -0.00000000
  60         0.00000000
  61        -0.00000000
Sym=    40a  
Ene=     9.3895
Spin= Alpha
Occup=    0.00000
   1         0.00000000
   2        -0.00000000
   3         0.00000000
   4        -0.00000000
   5         0.00000000
   6        -0.00000000
   7         0.00000000
   8        -0.00000000
   9         0.00000000
  10        -0.00000000
  11         0.00000000
  12        -0.00000000
  13         0.00000000
  14        -0.00000000
  15         0.00000000
  16        -0.00000000
  17         0.00000000
  18        -0.00000000
  19        -0.00000000
  20         0.00000000
  21        -0.00000000
  22        -0.00000000
  23        -0.00000000
  24         0.00000000
  25        -0.00000000
  26         0.00000000
  27        -0.00000000
  28        -0.00000000
  29        -0.00000000
  30        -0.00000000
  31        -0.00000000
  32         0.00000000
  33         0.00000000
  34        -0.00000000
  35        -0.00000000
  36        -0.00000000
  37        -0.00000000
  38         0.00000000
  39         0.00000000
  40        -0.00000000
  41        -0.00000000
  42         0.00000030
  43        -0.00000000
  44         0.00000000
  45         0.00000000
  46         1.37457581
  47        -0.00000022
  48         0.00000000
  49        -0.00000000
  50        -0.00000000
  51        -1.02987838
  52         0.00000010
  53        -0.00000000
  54         0.00000000
  55         0.00000000
  56         0.47914279
  57        -0.00000003
  58         0.00000000
  59        -0.00000000
  60        -0.00000000
  61        -0.15762349
Sym=    41a  
Ene=     9.3895
Spin= Alpha
Occup=    0.00000
   1         0.00000000
   2        -0.00000000
   3        -0.00000000
   4         0.00000000
   5        -0.00000000
   6         0.00000000
   7        -0.00000000
   8         0.00000000
   9        -0.00000000
  10         0.00000000
  11        -0.00000000
  12         0.00000000
  13         0.00000000
  14        -0.00000000
  15         0.00000000
  16        -0.00000000
  17        -0.00000000
  18        -0.00000000
  19        -0.00000000
  20         0.00000000
  21         0.00000000
  22        -0.00000000
  23        -0.00000000
  24         0.00000000
  25        -0.00000000
  26         0.00000000
  27        -0.00000000
  28        -0.00000000
  29        -0.00000000
  30        -0.00000000
  31        -0.00000000
  32         0.00000000
  33         0.00000000
  34         0.00000000
  35        -0.00000000
  36        -0.00000000
  37        -0.00000000
  38         0.00000000
  39         0.00000000
  40         0.00000000
  41        -0.00000000
  42        -0.00240215
  43        -0.39023050
  44         0.31510050
  45         1.27979871
  46        -0.00000000
  47         0.00179977
  48         0.29237380
  49        -0.23608388
  50        -0.95886819
  51         0.00000000
  52        -0.00083733
  53        -0.13602460
  54         0.10983616
  55         0.44610586
  56        -0.00000000
  57         0.00027546
  58         0.04474798
  59        -0.03613278
  60        -0.14675534
  61         0.00000000
Sym=    42a  
Ene=     9.3895
Spin= Alpha
Occup=    0.00000
   1        -0.00000000
   2         0.00000000
   3        -0.00000000
   4         0.00000000
   5        -0.00000000
   6         0.00000000
   7        -0.00000000
   8         0.00000000
   9        -0.00000000
  10        -0.00000000
  11         0.00000000
  12        -0.00000000
  13         0.00000000
  14        -0.00000000
  15         0.00000000
  16        -0.00000000
  17         0.00000000
  18        -0.00000000
  19        -0.00000000
  20        -0.00000000
  21        -0.00000000
  22        -0.00000000
  23         0.00000000
  24         0.00000000
  25        -0.00000000
  26        -0.00000000
  27        -0.00000000
  28        -0.00000000
  29         0.00000000
  30        -0.00000000
  31        -0.00000000
  32        -0.00000000
  33         0.00000000
  34        -0.00000000
  35         0.00000000
  36        -0.00000000
  37        -0.00000000
  38        -0.00000000
  39         0.00000000
  40        -0.00000000
  41         0.00000000
  42         1.37456904
  43        -0.00408130
  44         0.00081782
  45         0.00113422
  46        -0.00000030
  47        -1.02987331
  48         0.00305784
  49        -0.00061274
  50        -0.00084980
  51         0.00000022
  52         0.47914043
  53        -0.00142264
  54         0.00028507
  55         0.00039536
  56        -0.00000010
  57        -0.15762271
  58         0.00046800
  59        -0.00009378
  60        -0.00013006
  61         0.00000003
Sym=    43a  
Ene=     9.3895
Spin= Alpha
Occup=    0.00000
   1        -0.00000000
   2        -0.00000000
   3         0.00000000
   4         0.00000000
   5        -0.00000000
   6         0.00000000
   7        -0.00000000
   8         0.00000000
   9        -0.00000000
  10         0.00000000
  11        -0.00000000
  12         0.00000000
  13        -0.00000000
  14         0.00000000
  15        -0.00000000
  16         0.00000000
  17        -0.00000000
  18         0.00000000
  19         0.00000000
  20         0.00000000
  21         0.00000000
  22         0.00000000
  23        -0.00000000
  24        -0.00000000
  25         0.00000000
  26         0.00000000
  27         0.00000000
  28         0.00000000
  29        -0.00000000
  30         0.00000000
  31         0.00000000
  32         0.00000000
  33        -0.00000000
  34         0.00000000
  35        -0.00000000
  36         0.00000000
  37         0.00000000
  38         0.00000000
  39        -0.00000000
  40         0.00000000
  41        -0.00000000
  42         0.00344077
  43         1.30570072
  44         0.27444545
  45         0.33056339
  46        -0.00000000
  47        -0.00257794
  48        -0.97827484
  49        -0.20562375
  50        -0.24766920
  51         0.00000000
  52         0.00119937
  53         0.45513465
  54         0.09566483
  55         0.11522614
  56        -0.00000000
  57        -0.00039456
  58        -0.14972554
  59        -0.03147084
  60        -0.03790592
  61         0.00000000
Sym=    44a  
Ene=     9.3895
Spin= Alpha
Occup=    0.00000
   1        -0.00000000
   2         0.00000000
   3         0.00000000
   4        -0.00000000
   5         0.00000000
   6         0.00000000
   7        -0.00000000
   8         0.00000000
   9         0.00000000
  10        -0.00000000
  11         0.00000000
  12        -0.00000000
  13         0.00000000
  14         0.00000000
  15         0.00000000
  16        -0.00000000
  17         0.00000000
  18        -0.00000000
  19        -0.00000000
  20        -0.00000000
  21        -0.00000000
  22        -0.00000000
  23         0.00000000
  24         0.00000000
  25         0.00000000
  26        -0.00000000
  27        -0.00000000
  28        -0.00000000
  29         0.00000000
  30        -0.00000000
  31        -0.00000000
  32        -0.00000000
  33         0.00000000
  34        -0.00000000
  35         0.00000000
  36        -0.00000000
  37        -0.00000000
  38        -0.00000000
  39         0.00000000
  40        -0.00000000
  41         0.00000000
  42        -0.00100153
  43        -0.17974372
  44         1.30952257
  45        -0.37722738
  46         0.00000000
  47         0.00075038
  48         0.13467003
  49        -0.98113830
  50         0.28263142
  51        -0.00000000
  52        -0.00034911
  53        -0.06265417
  54         0.45646686
  55        -0.13149204
  56         0.00000000
  57         0.00011485
  58         0.02061133
  59        -0.15016379
  60         0.04325690
  61        -0.00000000
Sym=    45a  
Ene=    12.9300
Spin= Alpha
Occup=    0.00000
   1        -0.00003186
   2         0.00038949
   3        -0.00278865
   4         0.01515347
   5        -0.06848327
   6         0.28961277
   7        -1.09511129
   8         4.64786522
   9        -7.42885439
  10         6.06607570
  11        -3.65731889
  12         1.90001491
  13        -0.75175097
  14         0.18532405
  15         0.00000000
  16        -0.00000000
  17        -0.00000000
  18        -0.00000000
  19        -0.00000000
  20         0.00000000
  21         0.00000000
  22        -0.00000000
  23        -0.00000000
  24         0.00000000
  25        -0.00000000
  26         0.00000000
  27        -0.00000000
  28        -0.00000000
  29        -0.00000000
  30        -0.00000000
  31        -0.00000000
  32         0.00000000
  33         0.00000000
  34         0.00000000
  35        -0.00000000
  36        -0.00000000
  37        -0.00000000
  38         0.00000000
  39         0.00000000
  40         0.00000000
  41        -0.00000000
  42        -0.00000000
  43         0.00000000
  44        -0.00000000
  45        -0.00000000
  46         0.00000000
  47        -0.00000000
  48        -0.00000000
  49         0.00000000
  50         0.00000000
  51        -0.00000000
  52         0.00000000
  53         0.00000000
  54        -0.00000000
  55        -0.00000000
  56         0.00000000
  57        -0.00000000
  58        -0.00000000
  59         0.00000000
  60         0.00000000
  61        -0.00000000
Sym=    46a  
Ene=    14.1670
Spin= Alpha
Occup=    0.00000
   1         0.00000000
   2         0.00000000
   3         0.00000000
   4         0.00000000
   5         0.00000000
   6         0.00000000
   7         0.00000000
   8         0.00000000
   9        -0.00000000
  10        -0.00000000
  11         0.00000000
  12         0.00000000
  13         0.00000000
  14        -0.00000000
  15        -0.00000000
  16         0.00000000
  17         0.03357444
  18         0.00000000
  19         0.00000000
  20        -0.35409953
  21        -0.00000000
  22        -0.00000000
  23         2.34081123
  24        -0.00000000
  25         0.00000000
  26        -2.65216097
  27         0.00000000
  28        -0.00000000
  29         1.88060307
  30         0.00000000
  31         0.00000000
  32        -1.13288768
  33        -0.00000000
  34        -0.00000000
  35         0.61595319
  36         0.00000000
  37         0.00000000
  38        -0.26753668
  39        -0.00000000
  40         0.00000000
  41         0.07014175
  42        -0.00000000
  43        -0.00000000
  44         0.00000000
  45         0.00000000
  46         0.00000000
  47         0.00000000
  48         0.00000000
  49        -0.00000000
  50        -0.00000000
  51         0.00000000
  52        -0.00000000
  53         0.00000000
  54         0.00000000
  55         0.00000000
  56        -0.00000000
  57         0.00000000
  58        -0.00000000
  59         0.00000000
  60        -0.00000000
  61        -0.00000000
Sym=    47a  
Ene=    14.1670
Spin= Alpha
Occup=    0.00000
   1         0.00000000
   2         0.00000000
   3         0.00000000
   4         0.00000000
   5         0.00000000
   6         0.00000000
   7         0.00000000
   8         0.00000000
   9         0.00000000
  10         0.00000000
  11         0.00000000
  12         0.00000000
  13         0.00000000
  14        -0.00000000
  15         0.00000000
  16         0.03357444
  17        -0.00000000
  18        -0.00000000
  19        -0.35409953
  20         0.00000000
  21        -0.00000000
  22         2.34081123
  23        -0.00000000
  24         0.00000000
  25        -2.65216097
  26         0.00000000
  27        -0.00000000
  28         1.88060307
  29        -0.00000000
  30        -0.00000000
  31        -1.13288768
  32         0.00000000
  33         0.00000000
  34         0.61595319
  35        -0.00000000
  36        -0.00000000
  37        -0.26753668
  38         0.00000000
  39         0.00000000
  40         0.07014175
  41        -0.00000000
  42        -0.00000000
  43         0.00000000
  44         0.00000000
  45         0.00000000
  46        -0.00000000
  47         0.00000000
  48        -0.00000000
  49         0.00000000
  50        -0.00000000
  51         0.00000000
  52        -0.00000000
  53         0.00000000
  54        -0.00000000
  55         0.00000000
  56        -0.00000000
  57         0.00000000
  58        -0.00000000
  59         0.00000000
  60        -0.00000000
  61         0.00000000
Sym=    48a  
Ene=    14.1670
Spin= Alpha
Occup=    0.00000
   1         0.00000000
   2         0.00000000
   3         0.00000000
   4         0.00000000
   5         0.00000000
   6         0.00000000
   7         0.00000000
   8         0.00000000
   9         0.00000000
  10         0.00000000
  11         0.00000000
  12         0.00000000
  13         0.00000000
  14        -0.00000000
  15         0.03357444
  16        -0.00000000
  17        -0.00000000
  18        -0.35409953
  19        -0.00000000
  20         0.00000000
  21         2.34081123
  22        -0.00000000
  23        -0.00000000
  24        -2.65216097
  25        -0.00000000
  26         0.00000000
  27         1.88060307
  28        -0.00000000
  29        -0.00000000
  30        -1.13288768
  31        -0.00000000
  32         0.00000000
  33         0.61595319
  34        -0.00000000
  35        -0.00000000
  36        -0.26753668
  37        -0.00000000
  38         0.00000000
  39         0.07014175
  40        -0.00000000
  41        -0.00000000
  42        -0.00000000
  43         0.00000000
  44         0.00000000
  45         0.00000000
  46        -0.00000000
  47         0.00000000
  48        -0.00000000
  49         0.00000000
  50        -0.00000000
  51         0.00000000
  52        -0.00000000
  53         0.00000000
  54        -0.00000000
  55         0.00000000
  56        -0.00000000
  57         0.00000000
  58        -0.00000000
  59         0.00000000
  60        -0.00000000
  61         0.00000000
Sym=    49a  
Ene=    30.4640
Spin= Alpha
Occup=    0.00000
   1         0.00009358
   2        -0.00114452
   3         0.00824561
   4        -0.04511343
   5         0.21351511
   6        -0.93465872
   7         4.27837668
   8        -6.47738067
   9         5.35017046
  10        -3.53783823
  11         2.02263702
  12        -0.98606549
  13         0.43235345
  14        -0.10352465
  15        -0.00000000
  16         0.00000000
  17        -0.00000000
  18         0.00000000
  19         0.00000000
  20         0.00000000
  21         0.00000000
  22         0.00000000
  23         0.00000000
  24        -0.00000000
  25         0.00000000
  26        -0.00000000
  27         0.00000000
  28         0.00000000
  29         0.00000000
  30         0.00000000
  31         0.00000000
  32        -0.00000000
  33        -0.00000000
  34         0.00000000
  35         0.00000000
  36         0.00000000
  37         0.00000000
  38        -0.00000000
  39        -0.00000000
  40         0.00000000
  41         0.00000000
  42        -0.00000000
  43        -0.00000000
  44         0.00000000
  45         0.00000000
  46         0.00000000
  47         0.00000000
  48         0.00000000
  49        -0.00000000
  50        -0.00000000
  51        -0.00000000
  52        -0.00000000
  53        -0.00000000
  54         0.00000000
  55         0.00000000
  56         0.00000000
  57         0.00000000
  58         0.00000000
  59        -0.00000000
  60        -0.00000000
  61        -0.00000000
Sym=    50a  
Ene=    34.0240
Spin= Alpha
Occup=    0.00000
   1         0.00000000
   2         0.00000000
   3         0.00000000
   4         0.00000000
   5         0.00000000
   6         0.00000000
   7         0.00000000
   8         0.00000000
   9         0.00000000
  10         0.00000000
  11        -0.00000000
  12        -0.00000000
  13        -0.00000000
  14         0.00000000
  15         0.00000000
  16        -0.00000000
  17        -0.13266498
  18        -0.00000000
  19        -0.00000000
  20         1.84676789
  21         0.00000000
  22         0.00000000
  23        -2.08590579
  24         0.00000000
  25        -0.00000000
  26         1.54451447
  27        -0.00000000
  28         0.00000000
  29        -0.99148580
  30        -0.00000000
  31        -0.00000000
  32         0.59665165
  33         0.00000000
  34         0.00000000
  35        -0.32928619
  36        -0.00000000
  37        -0.00000000
  38         0.14465487
  39         0.00000000
  40        -0.00000000
  41        -0.03819989
  42         0.00000000
  43         0.00000000
  44        -0.00000000
  45        -0.00000000
  46        -0.00000000
  47        -0.00000000
  48        -0.00000000
  49         0.00000000
  50         0.00000000
  51        -0.00000000
  52         0.00000000
  53        -0.00000000
  54        -0.00000000
  55        -0.00000000
  56         0.00000000
  57        -0.00000000
  58         0.00000000
  59         0.00000000
  60         0.00000000
  61         0.00000000
Sym=    51a  
Ene=    34.0240
Spin= Alpha
Occup=    0.00000
   1         0.00000000
   2         0.00000000
   3         0.00000000
   4         0.00000000
   5         0.00000000
   6         0.00000000
   7         0.00000000
   8         0.00000000
   9         0.00000000
  10         0.00000000
  11         0.00000000
  12         0.00000000
  13         0.00000000
  14        -0.00000000
  15         0.00000000
  16        -0.13266498
  17        -0.00000000
  18        -0.00000000
  19         1.84676789
  20         0.00000000
  21         0.00000000
  22        -2.08590579
  23        -0.00000000
  24        -0.00000000
  25         1.54451447
  26         0.00000000
  27        -0.00000000
  28        -0.99148580
  29        -0.00000000
  30         0.00000000
  31         0.59665165
  32         0.00000000
  33         0.00000000
  34        -0.32928619
  35        -0.00000000
  36        -0.00000000
  37         0.14465487
  38         0.00000000
  39         0.00000000
  40        -0.03819989
  41        -0.00000000
  42        -0.00000000
  43         0.00000000
  44         0.00000000
  45         0.00000000
  46        -0.00000000
  47         0.00000000
  48        -0.00000000
  49         0.00000000
  50        -0.00000000
  51         0.00000000
  52        -0.00000000
  53         0.00000000
  54        -0.00000000
  55         0.00000000
  56        -0.00000000
  57         0.00000000
  58        -0.00000000
  59         0.00000000
  60        -0.00000000
  61         0.00000000
Sym=    52a  
Ene=    34.0240
Spin= Alpha
Occup=    0.00000
   1         0.00000000
   2         0.00000000
   3         0.00000000
   4         0.00000000
   5         0.00000000
   6         0.00000000
   7         0.00000000
   8         0.00000000
   9         0.00000000
  10         0.00000000
  11         0.00000000
  12         0.00000000
  13         0.00000000
  14        -0.00000000
  15        -0.13266498
  16        -0.00000000
  17        -0.00000000
  18         1.84676789
  19        -0.00000000
  20         0.00000000
  21        -2.08590579
  22        -0.00000000
  23        -0.00000000
  24         1.54451447
  25        -0.00000000
  26         0.00000000
  27        -0.99148580
  28        -0.00000000
  29        -0.00000000
  30         0.59665165
  31        -0.00000000
  32         0.00000000
  33        -0.32928619
  34        -0.00000000
  35        -0.00000000
  36         0.14465487
  37        -0.00000000
  38         0.00000000
  39        -0.03819989
  40        -0.00000000
  41        -0.00000000
  42        -0.00000000
  43         0.00000000
  44         0.00000000
  45         0.00000000
  46        -0.00000000
  47         0.00000000
  48        -0.00000000
  49         0.00000000
  50        -0.00000000
  51         0.00000000
  52        -0.00000000
  53         0.00000000
  54        -0.00000000
  55         0.00000000
  56        -0.00000000
  57         0.00000000
  58        -0.00000000
  59         0.00000000
  60        -0.00000000
  61         0.00000000
