[MOLDEN FORMAT]
[N_ATOMS]
                    1
[ATOMS] (AU)
BE          1      4           0.00000000      0.00000000      0.00000000
[5D]
[CHARGE] (MULLIKEN)
  -5.2402526762307389E-014
[GTO] (AU)
   1
   s   1
  0.228322564E+05  0.100000000E+01
   s   1
  0.340266896E+04  0.100000000E+01
   s   1
  0.767193554E+03  0.100000000E+01
   s   1
  0.213646144E+03  0.100000000E+01
   s   1
  0.678284792E+02  0.100000000E+01
   s   1
  0.235825266E+02  0.100000000E+01
   s   1
  0.879986536E+01  0.100000000E+01
   s   1
  0.349930382E+01  0.100000000E+01
   s   1
  0.146521330E+01  0.100000000E+01
   s   1
  0.614092535E+00  0.100000000E+01
   s   1
  0.260005174E+00  0.100000000E+01
   s   1
  0.105113584E+00  0.100000000E+01
   s   1
  0.428088430E-01  0.100000000E+01
   s   1
  0.149826410E-01  0.100000000E+01
   p   1
  0.337101840E+02  0.100000000E+01
   p   1
  0.805764950E+01  0.100000000E+01
   p   1
  0.283647140E+01  0.100000000E+01
   p   1
  0.109996570E+01  0.100000000E+01
   p   1
  0.443396400E+00  0.100000000E+01
   p   1
  0.182226400E+00  0.100000000E+01
   p   1
  0.757241000E-01  0.100000000E+01
   p   1
  0.316854000E-01  0.100000000E+01
   p   1
  0.110899000E-01  0.100000000E+01
   d   1
  0.140000000E+01  0.100000000E+01
   d   1
  0.490000000E+00  0.100000000E+01
   d   1
  0.171500000E+00  0.100000000E+01
   d   1
  0.600250000E-01  0.100000000E+01
 
[MO]
Sym=     1a  
Ene=     0.0000
Spin= Alpha
Occup=    1.99687
   1         0.00005283
   2         0.00041433
   3         0.00220618
   4         0.00947800
   5         0.03454002
   6         0.10527910
   7         0.24440488
   8         0.38581024
   9         0.31419708
  10         0.06698862
  11        -0.00471512
  12        -0.00588247
  13        -0.00295137
  14         0.00009741
  15        -0.00000000
  16         0.00000000
  17        -0.00000000
  18        -0.00000000
  19        -0.00000000
  20        -0.00000000
  21        -0.00000000
  22         0.00000000
  23        -0.00000000
  24         0.00000000
  25        -0.00000000
  26         0.00000000
  27        -0.00000000
  28         0.00000000
  29        -0.00000000
  30         0.00000000
  31        -0.00000000
  32         0.00000000
  33        -0.00000000
  34         0.00000000
  35         0.00000000
  36        -0.00000000
  37         0.00000000
  38         0.00000000
  39         0.00000000
  40        -0.00000000
  41         0.00000000
  42         0.00000000
  43         0.00000000
  44        -0.00000000
  45        -0.00000000
  46         0.00000000
  47        -0.00000000
  48        -0.00000000
  49         0.00000000
  50         0.00000000
  51        -0.00000000
  52         0.00000000
  53         0.00000000
  54        -0.00000000
  55        -0.00000000
  56         0.00000000
  57         0.00000000
  58         0.00000000
  59        -0.00000000
  60         0.00000000
  61         0.00000000
Sym=     2a  
Ene=     0.0000
Spin= Alpha
Occup=    1.80733
   1        -0.00000929
   2        -0.00007285
   3        -0.00038837
   4        -0.00167585
   5        -0.00618244
   6        -0.01947012
   7        -0.04858294
   8        -0.09250988
   9        -0.13021768
  10        -0.06293283
  11         0.28586453
  12         0.62428517
  13         0.23598567
  14        -0.00177238
  15         0.00000000
  16        -0.00000000
  17         0.00000000
  18         0.00000000
  19        -0.00000000
  20         0.00000000
  21        -0.00000000
  22         0.00000000
  23        -0.00000000
  24        -0.00000000
  25         0.00000000
  26         0.00000000
  27        -0.00000001
  28         0.00000000
  29         0.00000000
  30         0.00000000
  31        -0.00000000
  32         0.00000000
  33         0.00000001
  34        -0.00000001
  35        -0.00000000
  36        -0.00000000
  37         0.00000000
  38         0.00000000
  39        -0.00000000
  40         0.00000000
  41        -0.00000000
  42         0.00000000
  43         0.00000000
  44        -0.00000000
  45        -0.00000000
  46         0.00000000
  47         0.00000000
  48         0.00000000
  49        -0.00000000
  50         0.00000000
  51         0.00000000
  52        -0.00000000
  53        -0.00000000
  54         0.00000000
  55         0.00000000
  56        -0.00000000
  57        -0.00000000
  58        -0.00000000
  59         0.00000000
  60         0.00000000
  61        -0.00000000
Sym=     3a  
Ene=     0.0000
Spin= Alpha
Occup=    0.00063
   1         0.00000000
   2        -0.00000000
   3         0.00000000
   4        -0.00000000
   5         0.00000003
   6        -0.00000013
   7         0.00000037
   8        -0.00000053
   9         0.00000037
  10        -0.00000002
  11        -0.00000025
  12         0.00000024
  13        -0.00000008
  14        -0.00000001
  15         0.04093283
  16        -0.03126970
  17         0.06039216
  18         0.30045942
  19        -0.22952918
  20         0.44329690
  21         0.23328335
  22        -0.17821152
  23         0.34418550
  24         0.00850333
  25        -0.00649594
  26         0.01254580
  27        -0.02197278
  28         0.01678562
  29        -0.03241856
  30        -0.05459038
  31         0.04170310
  32        -0.08054252
  33        -0.02639561
  34         0.02016430
  35        -0.03894394
  36        -0.00122622
  37         0.00093677
  38        -0.00180921
  39        -0.00000680
  40         0.00000520
  41        -0.00001004
  42        -0.00000000
  43         0.00000000
  44        -0.00000000
  45         0.00000000
  46        -0.00000000
  47        -0.00000000
  48         0.00000000
  49        -0.00000000
  50         0.00000000
  51        -0.00000000
  52         0.00000000
  53        -0.00000000
  54         0.00000000
  55        -0.00000000
  56         0.00000000
  57        -0.00000000
  58        -0.00000001
  59         0.00000000
  60        -0.00000000
  61         0.00000000
Sym=     4a  
Ene=     0.0000
Spin= Alpha
Occup=    0.00063
   1         0.00000000
   2         0.00000000
   3         0.00000000
   4        -0.00000000
   5         0.00000001
   6        -0.00000004
   7         0.00000013
   8        -0.00000025
   9         0.00000031
  10        -0.00000027
  11         0.00000016
  12        -0.00000008
  13         0.00000004
  14        -0.00000002
  15         0.03818533
  16         0.06889501
  17         0.00979090
  18         0.28029195
  19         0.50571042
  20         0.07186817
  21         0.21762489
  22         0.39264477
  23         0.05580004
  24         0.00793255
  25         0.01431216
  26         0.00203395
  27        -0.02049790
  28        -0.03698289
  29        -0.00525576
  30        -0.05092616
  31        -0.09188240
  32        -0.01305771
  33        -0.02462389
  34        -0.04442704
  35        -0.00631367
  36        -0.00114391
  37        -0.00206393
  38        -0.00029331
  39        -0.00000635
  40        -0.00001146
  41        -0.00000163
  42        -0.00000000
  43         0.00000000
  44         0.00000000
  45         0.00000000
  46         0.00000000
  47        -0.00000000
  48         0.00000000
  49         0.00000000
  50         0.00000000
  51         0.00000000
  52        -0.00000000
  53         0.00000000
  54         0.00000000
  55        -0.00000000
  56        -0.00000000
  57         0.00000000
  58        -0.00000000
  59        -0.00000000
  60        -0.00000001
  61        -0.00000001
Sym=     5a  
Ene=     0.0000
Spin= Alpha
Occup=    0.00063
   1        -0.00000000
   2        -0.00000000
   3         0.00000000
   4        -0.00000000
   5         0.00000003
   6        -0.00000009
   7         0.00000027
   8        -0.00000031
   9         0.00000003
  10         0.00000034
  11        -0.00000050
  12         0.00000039
  13        -0.00000016
  14         0.00000001
  15         0.05627511
  16        -0.02400388
  17        -0.05057103
  18         0.41307648
  19        -0.17619582
  20        -0.37120677
  21         0.32072179
  22        -0.13680235
  23        -0.28821319
  24         0.01169047
  25        -0.00498653
  26        -0.01050552
  27        -0.03020847
  28         0.01288529
  29         0.02714652
  30        -0.07505175
  31         0.03201298
  32         0.06744448
  33        -0.03628914
  34         0.01547894
  35         0.03261079
  36        -0.00168583
  37         0.00071910
  38         0.00151499
  39        -0.00000936
  40         0.00000399
  41         0.00000841
  42        -0.00000000
  43        -0.00000000
  44         0.00000000
  45         0.00000000
  46        -0.00000000
  47        -0.00000000
  48        -0.00000000
  49         0.00000000
  50         0.00000000
  51        -0.00000000
  52        -0.00000000
  53         0.00000000
  54        -0.00000000
  55        -0.00000000
  56         0.00000000
  57         0.00000001
  58         0.00000000
  59        -0.00000000
  60        -0.00000000
  61         0.00000000
Sym=     6a  
Ene=     0.0000
Spin= Alpha
Occup=    0.00125
   1         0.00008420
   2         0.00068719
   3         0.00350551
   4         0.01683950
   5         0.06775200
   6         0.33796422
   7         0.74129648
   8        -0.18279143
   9        -0.79561023
  10        -0.18508501
  11         0.07842576
  12         0.19346878
  13         0.07130266
  14        -0.00023043
  15        -0.00000000
  16        -0.00000000
  17         0.00000000
  18        -0.00000002
  19         0.00000001
  20         0.00000000
  21        -0.00000001
  22         0.00000000
  23         0.00000000
  24         0.00000000
  25         0.00000000
  26         0.00000000
  27         0.00000001
  28        -0.00000001
  29         0.00000001
  30         0.00000005
  31        -0.00000002
  32         0.00000001
  33         0.00000002
  34        -0.00000001
  35         0.00000001
  36         0.00000000
  37        -0.00000000
  38        -0.00000000
  39         0.00000000
  40        -0.00000000
  41         0.00000000
  42        -0.00000000
  43         0.00000000
  44        -0.00000000
  45         0.00000000
  46        -0.00000000
  47         0.00000000
  48         0.00000000
  49        -0.00000000
  50        -0.00000000
  51         0.00000000
  52        -0.00000000
  53        -0.00000000
  54         0.00000000
  55         0.00000000
  56        -0.00000000
  57        -0.00000000
  58        -0.00000000
  59         0.00000000
  60        -0.00000000
  61        -0.00000000
Sym=     7a  
Ene=     0.0000
Spin= Alpha
Occup=    0.06422
   1         0.00000000
   2        -0.00000000
   3         0.00000000
   4        -0.00000000
   5         0.00000002
   6        -0.00000009
   7         0.00000021
   8        -0.00000037
   9         0.00000020
  10         0.00000020
  11        -0.00000030
  12         0.00000029
  13        -0.00000017
  14        -0.00000003
  15         0.00040763
  16        -0.00053329
  17         0.00093016
  18         0.00258586
  19        -0.00338307
  20         0.00590074
  21         0.00736825
  22        -0.00963975
  23         0.01681363
  24         0.01782126
  25        -0.02331542
  26         0.04066668
  27         0.07968371
  28        -0.10424922
  29         0.18183116
  30         0.19182250
  31        -0.25095919
  32         0.43772218
  33         0.10654593
  34        -0.13939277
  35         0.24312843
  36         0.00209240
  37        -0.00273748
  38         0.00477470
  39         0.00072581
  40        -0.00094958
  41         0.00165625
  42         0.00000000
  43        -0.00000000
  44         0.00000000
  45        -0.00000000
  46         0.00000000
  47        -0.00000000
  48         0.00000000
  49        -0.00000000
  50         0.00000000
  51        -0.00000000
  52        -0.00000000
  53         0.00000000
  54        -0.00000000
  55        -0.00000000
  56        -0.00000000
  57        -0.00000000
  58         0.00000001
  59        -0.00000000
  60         0.00000000
  61        -0.00000001
Sym=     8a  
Ene=     0.0000
Spin= Alpha
Occup=    0.06422
   1         0.00000000
   2         0.00000000
   3        -0.00000000
   4        -0.00000000
   5         0.00000000
   6        -0.00000002
   7         0.00000008
   8        -0.00000019
   9         0.00000028
  10        -0.00000031
  11         0.00000026
  12        -0.00000014
  13         0.00000003
  14        -0.00000001
  15         0.00039498
  16         0.00099982
  17         0.00040014
  18         0.00250562
  19         0.00634263
  20         0.00253838
  21         0.00713961
  22         0.01807279
  23         0.00723290
  24         0.01726822
  25         0.04371213
  26         0.01749400
  27         0.07721098
  28         0.19544827
  29         0.07822026
  30         0.18586988
  31         0.47050262
  32         0.18829961
  33         0.10323962
  34         0.26133602
  35         0.10458916
  36         0.00202747
  37         0.00513229
  38         0.00205399
  39         0.00070329
  40         0.00178028
  41         0.00071248
  42        -0.00000000
  43        -0.00000000
  44         0.00000000
  45        -0.00000000
  46        -0.00000000
  47        -0.00000000
  48         0.00000000
  49        -0.00000000
  50         0.00000000
  51         0.00000000
  52         0.00000000
  53         0.00000000
  54        -0.00000000
  55         0.00000000
  56         0.00000000
  57         0.00000000
  58         0.00000000
  59         0.00000000
  60         0.00000001
  61         0.00000001
Sym=     9a  
Ene=     0.0000
Spin= Alpha
Occup=    0.06422
   1        -0.00000000
   2        -0.00000000
   3         0.00000000
   4        -0.00000001
   5         0.00000002
   6        -0.00000010
   7         0.00000022
   8        -0.00000033
   9         0.00000006
  10         0.00000050
  11        -0.00000067
  12         0.00000051
  13        -0.00000020
  14        -0.00000004
  15         0.00099680
  16        -0.00017809
  17        -0.00053893
  18         0.00632338
  19        -0.00112978
  20        -0.00341884
  21         0.01801816
  22        -0.00321923
  23        -0.00974172
  24         0.04357953
  25        -0.00778623
  26        -0.02356195
  27         0.19485635
  28        -0.03481431
  29        -0.10535173
  30         0.46907727
  31        -0.08380846
  32        -0.25361315
  33         0.26054447
  34        -0.04655059
  35        -0.14086694
  36         0.00511672
  37        -0.00091419
  38        -0.00276644
  39         0.00177488
  40        -0.00031711
  41        -0.00095961
  42         0.00000000
  43         0.00000000
  44        -0.00000000
  45        -0.00000000
  46         0.00000000
  47        -0.00000000
  48        -0.00000000
  49         0.00000000
  50         0.00000000
  51        -0.00000000
  52        -0.00000000
  53        -0.00000000
  54         0.00000000
  55         0.00000000
  56        -0.00000000
  57        -0.00000001
  58        -0.00000000
  59         0.00000000
  60         0.00000001
  61        -0.00000000
Sym=    10a  
Ene=     0.0275
Spin= Alpha
Occup=    0.00000
   1         0.00000000
   2         0.00000000
   3         0.00000000
   4         0.00000000
   5         0.00000000
   6         0.00000000
   7         0.00000000
   8         0.00000000
   9         0.00000000
  10        -0.00000000
  11        -0.00000001
  12         0.00000002
  13        -0.00000006
  14         0.00000007
  15        -0.00013542
  16         0.00000092
  17        -0.00001550
  18        -0.00032018
  19         0.00000217
  20        -0.00003665
  21        -0.00612612
  22         0.00004157
  23        -0.00070115
  24         0.00690166
  25        -0.00004684
  26         0.00078991
  27        -0.02633429
  28         0.00017871
  29        -0.00301403
  30         0.12002715
  31        -0.00081455
  32         0.01373744
  33        -0.19293105
  34         0.00130930
  35        -0.02208149
  36         0.66248494
  37        -0.00449586
  38         0.07582322
  39        -1.34612173
  40         0.00913526
  41        -0.15406733
  42         0.00000000
  43        -0.00000000
  44         0.00000000
  45        -0.00000000
  46         0.00000000
  47        -0.00000000
  48         0.00000000
  49        -0.00000000
  50         0.00000000
  51        -0.00000000
  52         0.00000000
  53        -0.00000000
  54         0.00000000
  55        -0.00000000
  56         0.00000000
  57        -0.00000000
  58         0.00000000
  59        -0.00000000
  60         0.00000000
  61        -0.00000000
Sym=    11a  
Ene=     0.0275
Spin= Alpha
Occup=    0.00000
   1         0.00000000
   2         0.00000000
   3         0.00000000
   4         0.00000000
   5         0.00000000
   6         0.00000000
   7         0.00000000
   8         0.00000000
   9         0.00000000
  10        -0.00000000
  11         0.00000000
  12        -0.00000000
  13         0.00000000
  14        -0.00000000
  15         0.00001171
  16         0.00009540
  17        -0.00009665
  18         0.00002768
  19         0.00022557
  20        -0.00022851
  21         0.00052969
  22         0.00431583
  23        -0.00437216
  24        -0.00059675
  25        -0.00486219
  26         0.00492564
  27         0.00227699
  28         0.01855241
  29        -0.01879455
  30        -0.01037813
  31        -0.08455867
  32         0.08566229
  33         0.01668175
  34         0.13591918
  35        -0.13769312
  36        -0.05728166
  37        -0.46671810
  38         0.47280946
  39         0.11639220
  40         0.94833752
  41        -0.96071472
  42        -0.00000000
  43        -0.00000000
  44         0.00000000
  45         0.00000000
  46         0.00000000
  47         0.00000000
  48         0.00000000
  49        -0.00000000
  50        -0.00000000
  51        -0.00000000
  52        -0.00000000
  53        -0.00000000
  54         0.00000000
  55         0.00000000
  56         0.00000000
  57         0.00000000
  58         0.00000000
  59        -0.00000000
  60        -0.00000000
  61        -0.00000000
Sym=    12a  
Ene=     0.0275
Spin= Alpha
Occup=    0.00000
   1        -0.00000000
   2        -0.00000000
   3        -0.00000000
   4        -0.00000000
   5        -0.00000000
   6        -0.00000000
   7        -0.00000000
   8        -0.00000000
   9        -0.00000000
  10         0.00000000
  11        -0.00000000
  12         0.00000000
  13         0.00000001
  14        -0.00000002
  15         0.00001020
  16        -0.00009735
  17        -0.00009486
  18         0.00002411
  19        -0.00023017
  20        -0.00022429
  21         0.00046127
  22        -0.00440393
  23        -0.00429131
  24        -0.00051966
  25         0.00496144
  26         0.00483456
  27         0.00198284
  28        -0.01893114
  29        -0.01844702
  30        -0.00903743
  31         0.08628481
  32         0.08407828
  33         0.01452672
  34        -0.13869378
  35        -0.13514700
  36        -0.04988173
  37         0.47624549
  38         0.46406661
  39         0.10135608
  40        -0.96769648
  41        -0.94294987
  42        -0.00000000
  43        -0.00000000
  44         0.00000000
  45        -0.00000000
  46        -0.00000000
  47         0.00000000
  48         0.00000000
  49        -0.00000000
  50         0.00000000
  51         0.00000000
  52        -0.00000000
  53        -0.00000000
  54        -0.00000000
  55        -0.00000000
  56        -0.00000000
  57         0.00000000
  58         0.00000000
  59        -0.00000000
  60         0.00000000
  61         0.00000000
Sym=    13a  
Ene=     0.0390
Spin= Alpha
Occup=    0.00000
   1         0.00000064
   2         0.00000159
   3         0.00003500
   4         0.00000513
   5         0.00071287
   6        -0.00013433
   7         0.01047259
   8        -0.00781316
   9         0.03473498
  10        -0.17808234
  11         0.28144171
  12        -0.65198229
  13         1.84248102
  14        -1.93772837
  15        -0.00000000
  16         0.00000000
  17        -0.00000000
  18        -0.00000000
  19         0.00000000
  20        -0.00000000
  21        -0.00000001
  22         0.00000000
  23        -0.00000000
  24        -0.00000002
  25         0.00000001
  26        -0.00000000
  27        -0.00000003
  28         0.00000001
  29        -0.00000000
  30        -0.00000002
  31         0.00000001
  32        -0.00000001
  33        -0.00000002
  34         0.00000001
  35         0.00000000
  36         0.00000003
  37         0.00000000
  38        -0.00000001
  39        -0.00000006
  40         0.00000001
  41         0.00000001
  42         0.00000000
  43         0.00000000
  44        -0.00000000
  45         0.00000000
  46         0.00000000
  47         0.00000000
  48        -0.00000000
  49         0.00000000
  50        -0.00000000
  51        -0.00000000
  52         0.00000000
  53         0.00000000
  54        -0.00000000
  55         0.00000000
  56         0.00000000
  57        -0.00000000
  58        -0.00000000
  59         0.00000000
  60         0.00000000
  61        -0.00000000
Sym=    14a  
Ene=     0.1352
Spin= Alpha
Occup=    0.00000
   1         0.00000000
   2         0.00000000
   3        -0.00000000
   4         0.00000000
   5        -0.00000000
   6         0.00000000
   7        -0.00000000
   8         0.00000000
   9        -0.00000000
  10        -0.00000002
  11         0.00000002
  12         0.00000003
  13        -0.00000005
  14         0.00000002
  15        -0.00000480
  16         0.00000084
  17        -0.00000312
  18        -0.00496643
  19         0.00087259
  20        -0.00322538
  21        -0.00059914
  22         0.00010527
  23        -0.00038910
  24        -0.04863700
  25         0.00854539
  26        -0.03158662
  27         0.13981829
  28        -0.02456570
  29         0.09080299
  30        -0.28067919
  31         0.04931458
  32        -0.18228310
  33         1.33239012
  34        -0.23409740
  35         0.86530183
  36        -2.12933263
  37         0.37411808
  38        -1.38286486
  39         0.84128620
  40        -0.14781175
  41         0.54636137
  42         0.00000000
  43        -0.00000000
  44         0.00000000
  45        -0.00000000
  46         0.00000000
  47        -0.00000000
  48         0.00000000
  49        -0.00000000
  50         0.00000000
  51        -0.00000000
  52         0.00000000
  53        -0.00000001
  54         0.00000000
  55        -0.00000001
  56         0.00000000
  57        -0.00000002
  58         0.00000003
  59        -0.00000001
  60         0.00000004
  61        -0.00000002
Sym=    15a  
Ene=     0.1352
Spin= Alpha
Occup=    0.00000
   1         0.00000000
   2         0.00000000
   3         0.00000000
   4         0.00000000
   5         0.00000000
   6         0.00000000
   7         0.00000000
   8         0.00000000
   9        -0.00000000
  10         0.00000000
  11        -0.00000001
  12         0.00000003
  13        -0.00000004
  14         0.00000002
  15         0.00000261
  16         0.00000430
  17        -0.00000286
  18         0.00270305
  19         0.00444583
  20        -0.00295939
  21         0.00032609
  22         0.00053634
  23        -0.00035702
  24         0.02647142
  25         0.04353870
  26        -0.02898176
  27        -0.07609821
  28        -0.12516200
  29         0.08331473
  30         0.15276389
  31         0.25125734
  32        -0.16725074
  33        -0.72517343
  34        -1.19272401
  35         0.79394290
  36         1.15892139
  37         1.90612802
  38        -1.26882396
  39        -0.45788269
  40        -0.75309941
  41         0.50130451
  42        -0.00000000
  43        -0.00000000
  44         0.00000000
  45         0.00000000
  46         0.00000000
  47         0.00000000
  48         0.00000000
  49        -0.00000000
  50        -0.00000000
  51        -0.00000000
  52        -0.00000000
  53        -0.00000000
  54         0.00000000
  55         0.00000001
  56         0.00000001
  57         0.00000001
  58         0.00000002
  59        -0.00000002
  60        -0.00000004
  61        -0.00000003
Sym=    16a  
Ene=     0.1352
Spin= Alpha
Occup=    0.00000
   1         0.00000000
   2        -0.00000000
   3         0.00000000
   4        -0.00000000
   5         0.00000000
   6        -0.00000000
   7         0.00000000
   8        -0.00000000
   9         0.00000001
  10        -0.00000002
  11         0.00000004
  12        -0.00000005
  13         0.00000005
  14        -0.00000001
  15        -0.00000190
  16         0.00000378
  17         0.00000395
  18        -0.00196417
  19         0.00391192
  20         0.00408275
  21        -0.00023695
  22         0.00047193
  23         0.00049254
  24        -0.01923543
  25         0.03830999
  26         0.03998300
  27         0.05529667
  28        -0.11013087
  29        -0.11494033
  30        -0.11100570
  31         0.22108299
  32         0.23073778
  33         0.52694640
  34        -1.04948571
  35        -1.09531720
  36        -0.84212880
  37         1.67721455
  38         1.75045923
  39         0.33271989
  40        -0.66265710
  41        -0.69159562
  42         0.00000000
  43         0.00000000
  44        -0.00000000
  45        -0.00000000
  46         0.00000000
  47        -0.00000000
  48        -0.00000000
  49         0.00000000
  50         0.00000000
  51        -0.00000000
  52         0.00000000
  53         0.00000001
  54        -0.00000000
  55        -0.00000000
  56         0.00000001
  57        -0.00000002
  58        -0.00000003
  59         0.00000001
  60         0.00000000
  61        -0.00000004
Sym=    17a  
Ene=     0.1841
Spin= Alpha
Occup=    0.00000
   1         0.00000000
   2         0.00000000
   3         0.00000000
   4         0.00000000
   5         0.00000000
   6         0.00000000
   7         0.00000000
   8        -0.00000000
   9         0.00000000
  10        -0.00000000
  11         0.00000001
  12        -0.00000002
  13         0.00000003
  14        -0.00000001
  15        -0.00000000
  16        -0.00000000
  17         0.00000000
  18        -0.00000000
  19        -0.00000000
  20         0.00000000
  21        -0.00000000
  22        -0.00000000
  23         0.00000000
  24        -0.00000000
  25        -0.00000000
  26         0.00000000
  27         0.00000000
  28         0.00000000
  29        -0.00000000
  30        -0.00000001
  31        -0.00000001
  32         0.00000001
  33         0.00000005
  34         0.00000005
  35        -0.00000005
  36        -0.00000006
  37        -0.00000006
  38         0.00000005
  39         0.00000002
  40         0.00000002
  41        -0.00000002
  42        -0.00302511
  43         0.00011718
  44         0.00948622
  45         0.00371238
  46         0.00221202
  47         0.01914445
  48        -0.00074159
  49        -0.06003363
  50        -0.02349385
  51        -0.01399877
  52        -0.05858695
  53         0.00226946
  54         0.18371842
  55         0.07189726
  56         0.04283985
  57         0.30977165
  58        -0.01199948
  59        -0.97138959
  60        -0.38014831
  61        -0.22651070
Sym=    18a  
Ene=     0.1841
Spin= Alpha
Occup=    0.00000
   1        -0.00000000
   2        -0.00000000
   3        -0.00000000
   4        -0.00000000
   5        -0.00000000
   6        -0.00000000
   7        -0.00000000
   8         0.00000000
   9        -0.00000000
  10         0.00000000
  11        -0.00000001
  12         0.00000002
  13        -0.00000002
  14         0.00000001
  15        -0.00000000
  16        -0.00000000
  17        -0.00000000
  18        -0.00000000
  19        -0.00000000
  20        -0.00000000
  21        -0.00000000
  22        -0.00000000
  23        -0.00000000
  24        -0.00000000
  25        -0.00000000
  26        -0.00000001
  27         0.00000000
  28         0.00000000
  29         0.00000000
  30        -0.00000001
  31        -0.00000001
  32        -0.00000002
  33         0.00000002
  34         0.00000004
  35         0.00000008
  36        -0.00000002
  37        -0.00000004
  38        -0.00000009
  39         0.00000001
  40         0.00000001
  41         0.00000003
  42         0.00771884
  43         0.00579239
  44         0.00062066
  45         0.00489128
  46        -0.00062137
  47        -0.04884875
  48        -0.03665719
  49        -0.00392788
  50        -0.03095450
  51         0.00393234
  52         0.14948980
  53         0.11218048
  54         0.01202034
  55         0.09472878
  56        -0.01203399
  57        -0.79040977
  58        -0.59314115
  59        -0.06355616
  60        -0.50086730
  61         0.06362831
Sym=    19a  
Ene=     0.1841
Spin= Alpha
Occup=    0.00000
   1        -0.00000000
   2        -0.00000000
   3        -0.00000000
   4        -0.00000000
   5        -0.00000000
   6        -0.00000000
   7        -0.00000000
   8         0.00000000
   9        -0.00000000
  10         0.00000000
  11        -0.00000000
  12         0.00000001
  13        -0.00000001
  14         0.00000000
  15        -0.00000000
  16         0.00000000
  17        -0.00000000
  18        -0.00000000
  19         0.00000000
  20        -0.00000000
  21        -0.00000000
  22         0.00000000
  23        -0.00000000
  24        -0.00000001
  25         0.00000001
  26        -0.00000000
  27         0.00000001
  28        -0.00000001
  29         0.00000000
  30        -0.00000003
  31         0.00000002
  32        -0.00000001
  33         0.00000010
  34        -0.00000009
  35         0.00000004
  36        -0.00000012
  37         0.00000011
  38        -0.00000004
  39         0.00000004
  40        -0.00000004
  41         0.00000001
  42        -0.00531209
  43         0.00450335
  44        -0.00070948
  45         0.00212107
  46        -0.00802043
  47         0.03361764
  48        -0.02849948
  49         0.00448996
  50        -0.01342323
  51         0.05075740
  52        -0.10287868
  53         0.08721577
  54        -0.01374043
  55         0.04107856
  56        -0.15533077
  57         0.54395895
  58        -0.46114313
  59         0.07265089
  60        -0.21719808
  61         0.82129322
Sym=    20a  
Ene=     0.1841
Spin= Alpha
Occup=    0.00000
   1         0.00000000
   2         0.00000000
   3         0.00000000
   4         0.00000000
   5         0.00000000
   6         0.00000000
   7         0.00000000
   8        -0.00000000
   9         0.00000000
  10        -0.00000000
  11         0.00000001
  12        -0.00000003
  13         0.00000003
  14        -0.00000001
  15        -0.00000000
  16         0.00000000
  17         0.00000000
  18        -0.00000000
  19         0.00000000
  20         0.00000000
  21        -0.00000000
  22         0.00000000
  23         0.00000000
  24        -0.00000000
  25         0.00000000
  26         0.00000001
  27         0.00000000
  28        -0.00000000
  29        -0.00000001
  30        -0.00000001
  31         0.00000000
  32         0.00000002
  33         0.00000006
  34        -0.00000001
  35        -0.00000008
  36        -0.00000006
  37         0.00000001
  38         0.00000009
  39         0.00000002
  40        -0.00000000
  41        -0.00000003
  42         0.00166302
  43        -0.00780478
  44        -0.00095163
  45         0.00626350
  46        -0.00374310
  47        -0.01052445
  48         0.04939265
  49         0.00602237
  50        -0.03963866
  51         0.02368823
  52         0.03220753
  53        -0.15115430
  54        -0.01843002
  55         0.12130455
  56        -0.07249210
  57        -0.17029351
  58         0.79921060
  59         0.09744658
  60        -0.64138355
  61         0.38329345
Sym=    21a  
Ene=     0.1841
Spin= Alpha
Occup=    0.00000
   1         0.00000000
   2         0.00000000
   3         0.00000000
   4         0.00000000
   5         0.00000000
   6         0.00000000
   7         0.00000000
   8         0.00000000
   9         0.00000000
  10        -0.00000000
  11         0.00000000
  12        -0.00000000
  13         0.00000000
  14        -0.00000000
  15         0.00000000
  16         0.00000000
  17         0.00000000
  18         0.00000000
  19         0.00000000
  20         0.00000000
  21         0.00000000
  22         0.00000000
  23         0.00000000
  24         0.00000001
  25         0.00000000
  26         0.00000000
  27        -0.00000000
  28        -0.00000000
  29        -0.00000000
  30         0.00000002
  31         0.00000002
  32         0.00000001
  33        -0.00000007
  34        -0.00000007
  35        -0.00000003
  36         0.00000008
  37         0.00000008
  38         0.00000003
  39        -0.00000003
  40        -0.00000003
  41        -0.00000001
  42         0.00425587
  43        -0.00175153
  44         0.00510349
  45        -0.00603252
  46        -0.00584901
  47        -0.02693330
  48         0.01108461
  49        -0.03229751
  50         0.03817688
  51         0.03701551
  52         0.08242287
  53        -0.03392176
  54         0.09883874
  55        -0.11683112
  56        -0.11327703
  57        -0.43580125
  58         0.17935732
  59        -0.52259824
  60         0.61773082
  61         0.59893903
Sym=    22a  
Ene=     0.2574
Spin= Alpha
Occup=    0.00000
   1         0.00000079
   2         0.00002274
   3        -0.00000489
   4         0.00069247
   5        -0.00060397
   6         0.01162923
   7        -0.00784766
   8         0.11643959
   9        -0.28726667
  10         0.46587069
  11        -1.78581331
  12         4.47138451
  13        -4.43995679
  14         1.40281758
  15        -0.00000000
  16         0.00000000
  17        -0.00000000
  18        -0.00000000
  19         0.00000000
  20         0.00000000
  21        -0.00000000
  22         0.00000000
  23        -0.00000000
  24        -0.00000000
  25         0.00000000
  26         0.00000000
  27        -0.00000001
  28         0.00000000
  29        -0.00000001
  30        -0.00000000
  31         0.00000000
  32         0.00000002
  33        -0.00000004
  34         0.00000001
  35        -0.00000009
  36         0.00000003
  37        -0.00000001
  38         0.00000007
  39        -0.00000002
  40         0.00000000
  41        -0.00000002
  42        -0.00000000
  43        -0.00000000
  44         0.00000000
  45         0.00000000
  46        -0.00000000
  47         0.00000000
  48         0.00000000
  49        -0.00000000
  50        -0.00000000
  51         0.00000000
  52        -0.00000000
  53        -0.00000000
  54         0.00000000
  55         0.00000000
  56        -0.00000000
  57         0.00000000
  58         0.00000001
  59        -0.00000001
  60        -0.00000000
  61         0.00000000
Sym=    23a  
Ene=     0.5115
Spin= Alpha
Occup=    0.00000
   1        -0.00000000
   2        -0.00000000
   3        -0.00000000
   4        -0.00000000
   5        -0.00000000
   6        -0.00000000
   7        -0.00000000
   8         0.00000000
   9        -0.00000002
  10         0.00000011
  11        -0.00000021
  12         0.00000023
  13        -0.00000015
  14         0.00000005
  15         0.00052786
  16        -0.00094401
  17         0.00163092
  18         0.00030299
  19        -0.00054185
  20         0.00093613
  21         0.02423471
  22        -0.04334073
  23         0.07487734
  24        -0.03677844
  25         0.06577361
  26        -0.11363336
  27         0.15241017
  28        -0.27256639
  29         0.47089759
  30        -0.68806773
  31         1.23052244
  32        -2.12590421
  33         0.95637445
  34        -1.71035519
  35         2.95488418
  36        -0.51392688
  37         0.91909344
  38        -1.58786589
  39         0.13649523
  40        -0.24410452
  41         0.42172561
  42         0.00000000
  43        -0.00000000
  44         0.00000000
  45         0.00000000
  46         0.00000000
  47        -0.00000000
  48         0.00000000
  49        -0.00000000
  50         0.00000000
  51        -0.00000000
  52         0.00000001
  53        -0.00000000
  54         0.00000000
  55         0.00000000
  56         0.00000001
  57        -0.00000001
  58         0.00000002
  59        -0.00000001
  60         0.00000000
  61        -0.00000001
Sym=    24a  
Ene=     0.5115
Spin= Alpha
Occup=    0.00000
   1        -0.00000000
   2         0.00000000
   3        -0.00000000
   4         0.00000000
   5        -0.00000000
   6         0.00000000
   7        -0.00000000
   8         0.00000001
   9        -0.00000002
  10         0.00000003
  11        -0.00000002
  12        -0.00000001
  13         0.00000002
  14        -0.00000001
  15        -0.00047113
  16        -0.00170602
  17        -0.00083500
  18        -0.00027043
  19        -0.00097923
  20        -0.00047928
  21        -0.02163036
  22        -0.07832536
  23        -0.03833567
  24         0.03282609
  25         0.11886604
  26         0.05817795
  27        -0.13603161
  28        -0.49258188
  29        -0.24108993
  30         0.61412539
  31         2.22379962
  32         1.08841945
  33        -0.85359884
  34        -3.09095309
  35        -1.51284019
  36         0.45869835
  37         1.66098521
  38         0.81295481
  39        -0.12182693
  40        -0.44114556
  41        -0.21591487
  42        -0.00000000
  43         0.00000000
  44        -0.00000000
  45         0.00000000
  46         0.00000000
  47        -0.00000000
  48        -0.00000000
  49         0.00000000
  50        -0.00000000
  51        -0.00000000
  52        -0.00000000
  53         0.00000000
  54        -0.00000001
  55         0.00000001
  56         0.00000000
  57        -0.00000000
  58        -0.00000001
  59         0.00000001
  60        -0.00000001
  61        -0.00000001
Sym=    25a  
Ene=     0.5115
Spin= Alpha
Occup=    0.00000
   1        -0.00000000
   2        -0.00000000
   3        -0.00000000
   4         0.00000000
   5        -0.00000000
   6        -0.00000000
   7        -0.00000000
   8         0.00000001
   9        -0.00000004
  10         0.00000015
  11        -0.00000025
  12         0.00000020
  13        -0.00000011
  14         0.00000004
  15         0.00182458
  16        -0.00016741
  17        -0.00068744
  18         0.00104729
  19        -0.00009609
  20        -0.00039458
  21         0.08376852
  22        -0.00768613
  23        -0.03156133
  24        -0.12712653
  25         0.01166441
  26         0.04789726
  27         0.52681348
  28        -0.04833744
  29        -0.19848668
  30        -2.37834077
  31         0.21822315
  32         0.89608366
  33         3.30575629
  34        -0.30331758
  35        -1.24550451
  36        -1.77641398
  37         0.16299374
  38         0.66929664
  39         0.47180259
  40        -0.04328995
  41        -0.17776031
  42        -0.00000000
  43         0.00000000
  44        -0.00000000
  45        -0.00000000
  46         0.00000000
  47        -0.00000000
  48        -0.00000000
  49         0.00000000
  50         0.00000000
  51        -0.00000000
  52        -0.00000000
  53         0.00000001
  54        -0.00000000
  55        -0.00000001
  56         0.00000001
  57        -0.00000001
  58        -0.00000001
  59         0.00000000
  60         0.00000002
  61        -0.00000001
Sym=    26a  
Ene=     0.6030
Spin= Alpha
Occup=    0.00000
   1        -0.00000000
   2        -0.00000000
   3        -0.00000000
   4        -0.00000000
   5        -0.00000000
   6        -0.00000000
   7         0.00000000
   8        -0.00000000
   9         0.00000000
  10        -0.00000000
  11         0.00000000
  12        -0.00000000
  13         0.00000000
  14        -0.00000000
  15        -0.00000000
  16        -0.00000000
  17        -0.00000000
  18        -0.00000000
  19        -0.00000000
  20         0.00000000
  21        -0.00000000
  22        -0.00000000
  23        -0.00000000
  24         0.00000000
  25         0.00000000
  26         0.00000000
  27        -0.00000000
  28        -0.00000001
  29        -0.00000000
  30         0.00000000
  31         0.00000002
  32         0.00000001
  33        -0.00000000
  34        -0.00000003
  35        -0.00000001
  36         0.00000000
  37         0.00000001
  38         0.00000001
  39        -0.00000000
  40        -0.00000000
  41        -0.00000000
  42        -0.00873647
  43        -0.00658129
  44         0.04366785
  45         0.00377523
  46         0.01809575
  47         0.02868237
  48         0.02160680
  49        -0.14336431
  50        -0.01239430
  51        -0.05940950
  52        -0.25032235
  53        -0.18857104
  54         1.25119687
  55         0.10816996
  56         0.51849009
  57         0.13038480
  58         0.09822055
  59        -0.65170791
  60        -0.05634223
  61        -0.27006469
Sym=    27a  
Ene=     0.6030
Spin= Alpha
Occup=    0.00000
   1        -0.00000000
   2        -0.00000000
   3        -0.00000000
   4        -0.00000000
   5        -0.00000000
   6        -0.00000000
   7        -0.00000000
   8        -0.00000000
   9         0.00000000
  10         0.00000000
  11         0.00000000
  12        -0.00000000
  13         0.00000000
  14        -0.00000000
  15        -0.00000000
  16         0.00000000
  17        -0.00000000
  18        -0.00000000
  19         0.00000000
  20        -0.00000000
  21        -0.00000000
  22         0.00000000
  23        -0.00000000
  24         0.00000000
  25        -0.00000000
  26        -0.00000000
  27        -0.00000000
  28         0.00000000
  29        -0.00000001
  30         0.00000002
  31        -0.00000001
  32         0.00000002
  33        -0.00000002
  34         0.00000001
  35        -0.00000002
  36         0.00000001
  37        -0.00000000
  38         0.00000001
  39        -0.00000000
  40         0.00000000
  41        -0.00000000
  42         0.02832124
  43         0.02900710
  44         0.00947325
  45         0.02490556
  46        -0.00383342
  47        -0.09298042
  48        -0.09523215
  49        -0.03110126
  50        -0.08176653
  51         0.01258536
  52         0.81147680
  53         0.83112846
  54         0.27143298
  55         0.71360872
  56        -0.10983736
  57        -0.42267198
  58        -0.43290789
  59        -0.14138064
  60        -0.37169566
  61         0.05721072
Sym=    28a  
Ene=     0.6030
Spin= Alpha
Occup=    0.00000
   1        -0.00000000
   2        -0.00000000
   3        -0.00000000
   4        -0.00000000
   5        -0.00000000
   6        -0.00000000
   7        -0.00000000
   8         0.00000000
   9        -0.00000000
  10         0.00000000
  11        -0.00000000
  12         0.00000000
  13        -0.00000000
  14         0.00000000
  15         0.00000000
  16         0.00000000
  17        -0.00000000
  18         0.00000000
  19        -0.00000000
  20        -0.00000000
  21         0.00000000
  22         0.00000000
  23        -0.00000000
  24         0.00000000
  25        -0.00000000
  26         0.00000000
  27         0.00000000
  28         0.00000000
  29        -0.00000001
  30         0.00000000
  31        -0.00000002
  32         0.00000002
  33         0.00000000
  34         0.00000002
  35        -0.00000002
  36        -0.00000000
  37        -0.00000001
  38         0.00000001
  39         0.00000000
  40         0.00000000
  41        -0.00000000
  42         0.03003691
  43        -0.02033732
  44        -0.00968297
  45        -0.00203136
  46         0.03089531
  47        -0.09861307
  48         0.06676871
  49         0.03178980
  50         0.00666907
  51        -0.10143126
  52         0.86063513
  53        -0.58271681
  54        -0.27744211
  55        -0.05820360
  56         0.88523056
  57        -0.44827696
  58         0.30351831
  59         0.14451061
  60         0.03031637
  61        -0.46108792
Sym=    29a  
Ene=     0.6030
Spin= Alpha
Occup=    0.00000
   1         0.00000000
   2         0.00000000
   3         0.00000000
   4         0.00000000
   5         0.00000000
   6         0.00000000
   7         0.00000000
   8         0.00000000
   9        -0.00000000
  10         0.00000000
  11        -0.00000000
  12         0.00000000
  13        -0.00000000
  14         0.00000000
  15        -0.00000000
  16         0.00000000
  17         0.00000000
  18        -0.00000000
  19        -0.00000000
  20         0.00000000
  21        -0.00000000
  22         0.00000000
  23         0.00000000
  24         0.00000000
  25        -0.00000000
  26        -0.00000000
  27        -0.00000001
  28         0.00000000
  29         0.00000001
  30         0.00000002
  31        -0.00000001
  32        -0.00000002
  33        -0.00000003
  34         0.00000001
  35         0.00000002
  36         0.00000001
  37        -0.00000001
  38        -0.00000001
  39        -0.00000000
  40         0.00000000
  41         0.00000000
  42        -0.02021619
  43         0.02621042
  44        -0.01390042
  45         0.00278761
  46         0.03273464
  47         0.06637102
  48        -0.08605046
  49         0.04563595
  50        -0.00915189
  51        -0.10746988
  52        -0.57924608
  53         0.75099625
  54        -0.39828289
  55         0.07987217
  56         0.93793199
  57         0.30171052
  58        -0.39116962
  59         0.20745265
  60        -0.04160283
  61        -0.48853839
Sym=    30a  
Ene=     0.6030
Spin= Alpha
Occup=    0.00000
   1        -0.00000000
   2        -0.00000000
   3        -0.00000000
   4        -0.00000000
   5        -0.00000000
   6        -0.00000000
   7         0.00000000
   8        -0.00000000
   9         0.00000000
  10        -0.00000000
  11         0.00000001
  12        -0.00000001
  13         0.00000000
  14        -0.00000000
  15         0.00000000
  16         0.00000000
  17         0.00000000
  18        -0.00000000
  19         0.00000000
  20         0.00000000
  21         0.00000000
  22         0.00000000
  23         0.00000000
  24        -0.00000000
  25        -0.00000000
  26         0.00000000
  27         0.00000001
  28         0.00000000
  29         0.00000000
  30        -0.00000002
  31        -0.00000002
  32        -0.00000001
  33         0.00000002
  34         0.00000002
  35         0.00000001
  36        -0.00000001
  37        -0.00000001
  38        -0.00000001
  39         0.00000000
  40         0.00000000
  41         0.00000000
  42        -0.01337536
  43        -0.01956812
  44        -0.00919913
  45         0.04149449
  46        -0.00003215
  47         0.04391216
  48         0.06424336
  49         0.03020132
  50        -0.13622903
  51         0.00010555
  52        -0.38323872
  53        -0.56067712
  54        -0.26357880
  55         1.18892442
  56        -0.00092118
  57         0.19961663
  58         0.29203855
  59         0.13728966
  60        -0.61927221
  61         0.00047981
Sym=    31a  
Ene=     1.1054
Spin= Alpha
Occup=    0.00000
   1        -0.00000795
   2         0.00000554
   3        -0.00049143
   4         0.00076974
   5        -0.01065006
   6         0.01621540
   7        -0.15746078
   8         0.25871851
   9        -0.95946562
  10         3.86998465
  11        -6.95621273
  12         6.03624483
  13        -2.72584638
  14         0.67478870
  15        -0.00000000
  16         0.00000000
  17        -0.00000000
  18        -0.00000000
  19         0.00000000
  20         0.00000000
  21        -0.00000003
  22         0.00000001
  23        -0.00000000
  24         0.00000001
  25        -0.00000000
  26         0.00000001
  27        -0.00000030
  28         0.00000015
  29        -0.00000004
  30         0.00000043
  31        -0.00000021
  32         0.00000009
  33        -0.00000035
  34         0.00000017
  35        -0.00000006
  36         0.00000015
  37        -0.00000007
  38         0.00000003
  39        -0.00000003
  40         0.00000002
  41        -0.00000001
  42         0.00000000
  43         0.00000000
  44        -0.00000000
  45        -0.00000000
  46         0.00000000
  47        -0.00000000
  48        -0.00000000
  49         0.00000000
  50         0.00000000
  51        -0.00000000
  52         0.00000000
  53         0.00000000
  54        -0.00000000
  55        -0.00000000
  56         0.00000000
  57        -0.00000000
  58        -0.00000000
  59         0.00000000
  60         0.00000000
  61        -0.00000000
Sym=    32a  
Ene=     1.6734
Spin= Alpha
Occup=    0.00000
   1        -0.00000000
   2         0.00000000
   3        -0.00000000
   4         0.00000000
   5        -0.00000000
   6         0.00000000
   7        -0.00000003
   8         0.00000004
   9        -0.00000006
  10         0.00000031
  11        -0.00000064
  12         0.00000057
  13        -0.00000023
  14         0.00000004
  15         0.00060745
  16        -0.00066091
  17         0.00085427
  18        -0.03283765
  19         0.03572747
  20        -0.04618015
  21         0.02878354
  22        -0.03131658
  23         0.04047878
  24        -0.46675731
  25         0.50783339
  26        -0.65640876
  27         1.56898052
  28        -1.70705562
  29         2.20648400
  30        -1.75321601
  31         1.90750442
  32        -2.46557755
  33         1.05163838
  34        -1.14418582
  35         1.47893701
  36        -0.46653429
  37         0.50759077
  38        -0.65609515
  39         0.11884948
  40        -0.12930860
  41         0.16714005
  42        -0.00000000
  43         0.00000001
  44        -0.00000000
  45         0.00000000
  46        -0.00000001
  47         0.00000002
  48        -0.00000010
  49         0.00000005
  50        -0.00000004
  51         0.00000009
  52        -0.00000001
  53         0.00000008
  54        -0.00000004
  55         0.00000003
  56        -0.00000007
  57         0.00000001
  58        -0.00000003
  59         0.00000002
  60        -0.00000001
  61         0.00000003
Sym=    33a  
Ene=     1.6734
Spin= Alpha
Occup=    0.00000
   1         0.00000000
   2        -0.00000000
   3         0.00000000
   4        -0.00000000
   5         0.00000000
   6        -0.00000000
   7         0.00000001
   8        -0.00000004
   9         0.00000008
  10        -0.00000014
  11         0.00000018
  12        -0.00000013
  13         0.00000005
  14        -0.00000000
  15        -0.00065939
  16        -0.00100318
  17        -0.00030724
  18         0.03564555
  19         0.05423021
  20         0.01660869
  21        -0.03124477
  22        -0.04753498
  23        -0.01455819
  24         0.50666898
  25         0.77083305
  26         0.23607745
  27        -1.70314152
  28        -2.59111532
  29        -0.79356210
  30         1.90313067
  31         2.89537366
  32         0.88674510
  33        -1.14156227
  34        -1.73674327
  35        -0.53189977
  36         0.50642688
  37         0.77046476
  38         0.23596466
  39        -0.12901211
  40        -0.19627568
  41        -0.06011193
  42         0.00000000
  43        -0.00000000
  44        -0.00000000
  45        -0.00000001
  46        -0.00000001
  47        -0.00000001
  48         0.00000005
  49         0.00000002
  50         0.00000010
  51         0.00000007
  52         0.00000000
  53        -0.00000004
  54        -0.00000001
  55        -0.00000008
  56        -0.00000006
  57        -0.00000000
  58         0.00000002
  59         0.00000001
  60         0.00000003
  61         0.00000002
Sym=    34a  
Ene=     1.6734
Spin= Alpha
Occup=    0.00000
   1        -0.00000000
   2        -0.00000000
   3        -0.00000000
   4         0.00000000
   5        -0.00000000
   6         0.00000000
   7        -0.00000002
   8        -0.00000000
   9         0.00000003
  10         0.00000015
  11        -0.00000046
  12         0.00000046
  13        -0.00000020
  14         0.00000004
  15         0.00085544
  16        -0.00030396
  17        -0.00084344
  18        -0.04624341
  19         0.01643173
  20         0.04559512
  21         0.04053422
  22        -0.01440308
  23        -0.03996597
  24        -0.65730796
  25         0.23356213
  26         0.64809305
  27         2.20950661
  28        -0.78510698
  29        -2.17853116
  30        -2.46895498
  31         0.87729713
  32         2.43434232
  33         1.48096284
  34        -0.52623255
  35        -1.46020104
  36        -0.65699386
  37         0.23345053
  38         0.64778339
  39         0.16736901
  40        -0.05947146
  41        -0.16502263
  42        -0.00000001
  43        -0.00000000
  44         0.00000000
  45         0.00000001
  46        -0.00000000
  47         0.00000008
  48         0.00000006
  49        -0.00000002
  50        -0.00000007
  51         0.00000006
  52        -0.00000006
  53        -0.00000004
  54         0.00000002
  55         0.00000006
  56        -0.00000005
  57         0.00000003
  58         0.00000002
  59        -0.00000001
  60        -0.00000002
  61         0.00000002
Sym=    35a  
Ene=     1.7499
Spin= Alpha
Occup=    0.00000
   1        -0.00000000
   2        -0.00000000
   3        -0.00000000
   4        -0.00000000
   5        -0.00000000
   6         0.00000000
   7        -0.00000000
   8         0.00000000
   9        -0.00000000
  10         0.00000001
  11        -0.00000001
  12         0.00000001
  13        -0.00000000
  14         0.00000000
  15         0.00000000
  16        -0.00000000
  17         0.00000000
  18        -0.00000000
  19         0.00000000
  20        -0.00000000
  21         0.00000000
  22        -0.00000000
  23         0.00000000
  24        -0.00000001
  25         0.00000002
  26        -0.00000007
  27         0.00000002
  28        -0.00000007
  29         0.00000021
  30        -0.00000002
  31         0.00000007
  32        -0.00000023
  33         0.00000001
  34        -0.00000004
  35         0.00000013
  36        -0.00000000
  37         0.00000002
  38        -0.00000006
  39         0.00000000
  40        -0.00000000
  41         0.00000002
  42        -0.07447505
  43        -0.03793728
  44         0.06695687
  45        -0.02590724
  46         0.03621770
  47         0.94014159
  48         0.47890421
  49        -0.84523531
  50         0.32704204
  51        -0.45719696
  52        -0.69840597
  53        -0.35576510
  54         0.62790264
  55        -0.24295076
  56         0.33963936
  57         0.24225872
  58         0.12340559
  59        -0.21780297
  60         0.08427325
  61        -0.11781199
Sym=    36a  
Ene=     1.7499
Spin= Alpha
Occup=    0.00000
   1         0.00000000
   2         0.00000000
   3         0.00000000
   4         0.00000000
   5         0.00000000
   6         0.00000000
   7         0.00000000
   8        -0.00000000
   9         0.00000000
  10        -0.00000000
  11         0.00000000
  12        -0.00000000
  13         0.00000000
  14        -0.00000000
  15         0.00000000
  16         0.00000000
  17         0.00000000
  18        -0.00000000
  19        -0.00000000
  20        -0.00000000
  21         0.00000000
  22         0.00000000
  23         0.00000000
  24        -0.00000002
  25        -0.00000006
  26        -0.00000001
  27         0.00000005
  28         0.00000019
  29         0.00000004
  30        -0.00000006
  31        -0.00000021
  32        -0.00000004
  33         0.00000003
  34         0.00000012
  35         0.00000002
  36        -0.00000001
  37        -0.00000005
  38        -0.00000001
  39         0.00000000
  40         0.00000001
  41         0.00000000
  42        -0.05075392
  43        -0.03050892
  44        -0.07966273
  45        -0.05343471
  46        -0.02727133
  47         0.64069610
  48         0.38513173
  49         1.00562872
  50         0.67453727
  51         0.34426171
  52        -0.47595595
  53        -0.28610403
  54        -0.74705460
  55        -0.50109565
  56        -0.25574279
  57         0.16509664
  58         0.09924199
  59         0.25913366
  60         0.17381694
  61         0.08871047
Sym=    37a  
Ene=     1.7499
Spin= Alpha
Occup=    0.00000
   1        -0.00000000
   2        -0.00000000
   3        -0.00000000
   4        -0.00000000
   5        -0.00000000
   6        -0.00000000
   7        -0.00000000
   8        -0.00000000
   9        -0.00000000
  10         0.00000000
  11         0.00000000
  12         0.00000000
  13         0.00000000
  14        -0.00000000
  15        -0.00000000
  16         0.00000000
  17        -0.00000000
  18         0.00000001
  19        -0.00000000
  20         0.00000000
  21        -0.00000000
  22         0.00000000
  23        -0.00000000
  24         0.00000008
  25        -0.00000004
  26         0.00000004
  27        -0.00000026
  28         0.00000013
  29        -0.00000011
  30         0.00000028
  31        -0.00000014
  32         0.00000012
  33        -0.00000017
  34         0.00000008
  35        -0.00000007
  36         0.00000007
  37        -0.00000004
  38         0.00000003
  39        -0.00000002
  40         0.00000001
  41        -0.00000001
  42        -0.06409686
  43         0.07171194
  44         0.01150165
  45         0.03118712
  46        -0.05564140
  47         0.80913172
  48        -0.90526129
  49        -0.14519202
  50        -0.39369302
  51         0.70239353
  52        -0.60108225
  53         0.67249433
  54         0.10785926
  55         0.29246399
  56        -0.52178931
  57         0.20849968
  58        -0.23327065
  59        -0.03741355
  60        -0.10144809
  61         0.18099503
Sym=    38a  
Ene=     1.7499
Spin= Alpha
Occup=    0.00000
   1         0.00000000
   2         0.00000000
   3         0.00000000
   4         0.00000000
   5         0.00000000
   6         0.00000000
   7         0.00000000
   8        -0.00000000
   9         0.00000000
  10        -0.00000000
  11         0.00000000
  12        -0.00000000
  13         0.00000000
  14        -0.00000000
  15         0.00000000
  16         0.00000000
  17         0.00000000
  18        -0.00000000
  19        -0.00000000
  20        -0.00000000
  21         0.00000000
  22         0.00000000
  23         0.00000000
  24        -0.00000003
  25        -0.00000006
  26        -0.00000003
  27         0.00000010
  28         0.00000020
  29         0.00000008
  30        -0.00000010
  31        -0.00000021
  32        -0.00000009
  33         0.00000006
  34         0.00000013
  35         0.00000005
  36        -0.00000003
  37        -0.00000006
  38        -0.00000002
  39         0.00000001
  40         0.00000001
  41         0.00000001
  42         0.03223050
  43        -0.02378970
  44         0.04950170
  45        -0.04778531
  46        -0.08434033
  47        -0.40686421
  48         0.30031114
  49        -0.62488855
  50         0.60322152
  51         1.06467674
  52         0.30224851
  53        -0.22309309
  54         0.46421294
  55        -0.44811709
  56        -0.79091980
  57        -0.10484208
  58         0.07738514
  59        -0.16102330
  60         0.15544007
  61         0.27434934
Sym=    39a  
Ene=     1.7499
Spin= Alpha
Occup=    0.00000
   1         0.00000000
   2         0.00000000
   3         0.00000000
   4         0.00000000
   5         0.00000000
   6        -0.00000000
   7         0.00000000
   8        -0.00000000
   9         0.00000000
  10        -0.00000001
  11         0.00000002
  12        -0.00000001
  13         0.00000001
  14        -0.00000000
  15         0.00000000
  16        -0.00000000
  17        -0.00000000
  18        -0.00000000
  19         0.00000000
  20         0.00000000
  21         0.00000000
  22        -0.00000000
  23        -0.00000000
  24        -0.00000006
  25         0.00000001
  26         0.00000006
  27         0.00000020
  28        -0.00000002
  29        -0.00000018
  30        -0.00000022
  31         0.00000002
  32         0.00000020
  33         0.00000013
  34        -0.00000001
  35        -0.00000012
  36        -0.00000006
  37         0.00000001
  38         0.00000005
  39         0.00000001
  40        -0.00000000
  41        -0.00000001
  42         0.01349791
  43         0.07330291
  44         0.00631029
  45        -0.08166624
  46         0.03445571
  47        -0.17039193
  48        -0.92534494
  49        -0.07965839
  50         1.03092012
  51        -0.43495437
  52         0.12657959
  53         0.68741393
  54         0.05917608
  55        -0.76584291
  56         0.32311594
  57        -0.04390714
  58        -0.23844587
  59        -0.02052663
  60         0.26565083
  61        -0.11208045
Sym=    40a  
Ene=     4.3251
Spin= Alpha
Occup=    0.00000
   1        -0.00000128
   2         0.00028299
   3        -0.00072986
   4         0.00947197
   5        -0.02212954
   6         0.16784098
   7        -0.33905631
   8         2.15954099
   9        -6.17419069
  10         8.44513573
  11        -6.23749644
  12         3.16513839
  13        -1.40413002
  14         0.32637102
  15         0.00000000
  16        -0.00000000
  17        -0.00000000
  18        -0.00000001
  19         0.00000001
  20         0.00000000
  21         0.00000008
  22        -0.00000008
  23        -0.00000004
  24        -0.00000032
  25         0.00000030
  26         0.00000015
  27         0.00000032
  28        -0.00000031
  29        -0.00000017
  30        -0.00000027
  31         0.00000024
  32         0.00000010
  33         0.00000011
  34        -0.00000011
  35        -0.00000006
  36        -0.00000005
  37         0.00000005
  38         0.00000003
  39         0.00000001
  40        -0.00000001
  41        -0.00000001
  42        -0.00000000
  43         0.00000000
  44        -0.00000000
  45         0.00000000
  46         0.00000000
  47        -0.00000000
  48        -0.00000000
  49         0.00000000
  50         0.00000000
  51        -0.00000000
  52         0.00000000
  53         0.00000000
  54        -0.00000000
  55        -0.00000000
  56         0.00000000
  57         0.00000000
  58         0.00000000
  59        -0.00000000
  60         0.00000000
  61         0.00000000
Sym=    41a  
Ene=     5.1856
Spin= Alpha
Occup=    0.00000
   1        -0.00000000
   2        -0.00000000
   3        -0.00000000
   4        -0.00000000
   5        -0.00000000
   6         0.00000000
   7        -0.00000000
   8         0.00000000
   9        -0.00000000
  10         0.00000000
  11        -0.00000000
  12         0.00000000
  13        -0.00000000
  14         0.00000000
  15         0.00000000
  16         0.00000000
  17        -0.00000000
  18        -0.00000000
  19        -0.00000000
  20         0.00000000
  21         0.00000000
  22         0.00000001
  23        -0.00000000
  24        -0.00000001
  25        -0.00000003
  26         0.00000001
  27         0.00000001
  28         0.00000003
  29        -0.00000001
  30        -0.00000000
  31        -0.00000002
  32         0.00000000
  33         0.00000000
  34         0.00000001
  35        -0.00000000
  36        -0.00000000
  37        -0.00000000
  38         0.00000000
  39         0.00000000
  40         0.00000000
  41        -0.00000000
  42        -0.04255663
  43         0.24942677
  44         1.20501541
  45         0.32936926
  46         0.54441309
  47         0.03488231
  48        -0.20444714
  49        -0.98771255
  50        -0.26997343
  51        -0.44623797
  52        -0.01662190
  53         0.09742185
  54         0.47065849
  55         0.12864602
  56         0.21263848
  57         0.00545447
  58        -0.03196897
  59        -0.15444656
  60        -0.04221519
  61        -0.06977731
Sym=    42a  
Ene=     5.1856
Spin= Alpha
Occup=    0.00000
   1         0.00000000
   2         0.00000000
   3        -0.00000000
   4         0.00000000
   5        -0.00000000
   6         0.00000000
   7        -0.00000000
   8         0.00000000
   9        -0.00000000
  10         0.00000000
  11        -0.00000000
  12         0.00000000
  13        -0.00000000
  14         0.00000000
  15        -0.00000000
  16         0.00000000
  17        -0.00000000
  18         0.00000000
  19        -0.00000000
  20         0.00000000
  21        -0.00000001
  22         0.00000000
  23        -0.00000001
  24         0.00000002
  25        -0.00000000
  26         0.00000004
  27        -0.00000002
  28         0.00000000
  29        -0.00000004
  30         0.00000001
  31        -0.00000000
  32         0.00000002
  33        -0.00000001
  34         0.00000000
  35        -0.00000001
  36         0.00000000
  37        -0.00000000
  38         0.00000001
  39        -0.00000000
  40         0.00000000
  41        -0.00000000
  42        -0.69913240
  43        -0.89434540
  44         0.10259283
  45        -0.61143415
  46         0.49793556
  47         0.57305644
  48         0.73306628
  49        -0.08409205
  50         0.50117299
  51        -0.40814184
  52        -0.27306921
  53        -0.34931608
  54         0.04007101
  55        -0.23881576
  56         0.19448515
  57         0.08960765
  58         0.11462805
  59        -0.01314930
  60         0.07836738
  61        -0.06382029
Sym=    43a  
Ene=     5.1856
Spin= Alpha
Occup=    0.00000
   1         0.00000000
   2         0.00000000
   3        -0.00000000
   4         0.00000000
   5        -0.00000000
   6         0.00000000
   7        -0.00000000
   8         0.00000000
   9        -0.00000000
  10         0.00000000
  11        -0.00000000
  12         0.00000000
  13        -0.00000000
  14         0.00000000
  15        -0.00000000
  16         0.00000000
  17         0.00000000
  18         0.00000000
  19        -0.00000000
  20        -0.00000000
  21        -0.00000001
  22         0.00000001
  23         0.00000000
  24         0.00000003
  25        -0.00000003
  26        -0.00000000
  27        -0.00000002
  28         0.00000003
  29         0.00000000
  30         0.00000001
  31        -0.00000002
  32        -0.00000000
  33        -0.00000001
  34         0.00000001
  35         0.00000000
  36         0.00000000
  37        -0.00000000
  38        -0.00000000
  39        -0.00000000
  40         0.00000000
  41         0.00000000
  42         0.91582257
  43        -0.37644999
  44        -0.33981342
  45         0.17265833
  46         0.89175501
  47        -0.75067043
  48         0.30856401
  49         0.27853418
  50        -0.14152251
  51        -0.73094303
  52         0.35770470
  53        -0.14703496
  54        -0.13272534
  55         0.06743740
  56         0.34830432
  57        -0.11738078
  58         0.04824951
  59         0.04355381
  60        -0.02212958
  61        -0.11429604
Sym=    44a  
Ene=     5.1856
Spin= Alpha
Occup=    0.00000
   1         0.00000000
   2         0.00000000
   3        -0.00000000
   4         0.00000000
   5        -0.00000000
   6         0.00000000
   7        -0.00000000
   8         0.00000000
   9        -0.00000000
  10         0.00000000
  11        -0.00000000
  12         0.00000000
  13        -0.00000000
  14         0.00000000
  15        -0.00000000
  16        -0.00000000
  17        -0.00000000
  18         0.00000000
  19         0.00000000
  20         0.00000000
  21        -0.00000001
  22        -0.00000001
  23        -0.00000000
  24         0.00000004
  25         0.00000002
  26         0.00000001
  27        -0.00000003
  28        -0.00000002
  29        -0.00000001
  30         0.00000002
  31         0.00000001
  32         0.00000000
  33        -0.00000001
  34        -0.00000001
  35        -0.00000000
  36         0.00000001
  37         0.00000000
  38         0.00000000
  39        -0.00000000
  40        -0.00000000
  41        -0.00000000
  42         0.76674298
  43        -0.27898394
  44         0.55037795
  45        -0.81428624
  46        -0.53782137
  47        -0.62847467
  48         0.22867420
  49        -0.45112718
  50         0.66744436
  51         0.44083496
  52         0.29947675
  53        -0.10896637
  54         0.21496825
  55        -0.31804634
  56        -0.21006387
  57        -0.09827328
  58         0.03575731
  59        -0.07054182
  60         0.10436689
  61         0.06893245
Sym=    45a  
Ene=     5.1856
Spin= Alpha
Occup=    0.00000
   1        -0.00000000
   2        -0.00000000
   3        -0.00000000
   4         0.00000000
   5        -0.00000000
   6         0.00000000
   7        -0.00000000
   8         0.00000000
   9        -0.00000000
  10         0.00000000
  11        -0.00000000
  12         0.00000000
  13        -0.00000000
  14         0.00000000
  15         0.00000000
  16        -0.00000000
  17        -0.00000000
  18        -0.00000000
  19         0.00000000
  20         0.00000000
  21         0.00000001
  22        -0.00000000
  23        -0.00000001
  24        -0.00000002
  25         0.00000000
  26         0.00000003
  27         0.00000002
  28        -0.00000000
  29        -0.00000003
  30        -0.00000001
  31         0.00000000
  32         0.00000002
  33         0.00000001
  34        -0.00000000
  35        -0.00000001
  36        -0.00000000
  37         0.00000000
  38         0.00000000
  39         0.00000000
  40        -0.00000000
  41        -0.00000000
  42         0.06110387
  43        -0.91615643
  44         0.19995039
  45         0.86356692
  46        -0.54051122
  47        -0.05008489
  48         0.75094409
  49        -0.16389293
  50        -0.70783815
  51         0.44303974
  52         0.02386613
  53        -0.35783510
  54         0.07809722
  55         0.33729453
  56        -0.21111447
  57        -0.00783167
  58         0.11742357
  59        -0.02562760
  60        -0.11068318
  61         0.06927720
Sym=    46a  
Ene=     5.6385
Spin= Alpha
Occup=    0.00000
   1         0.00000000
   2        -0.00000000
   3         0.00000000
   4        -0.00000000
   5         0.00000001
   6        -0.00000003
   7         0.00000011
   8        -0.00000038
   9         0.00000088
  10        -0.00000120
  11         0.00000103
  12        -0.00000062
  13         0.00000026
  14        -0.00000005
  15         0.02259391
  16        -0.00198772
  17        -0.01096806
  18        -0.06879086
  19         0.00605193
  20         0.03339406
  21         1.32839561
  22        -0.11686674
  23        -0.64486064
  24        -3.06399795
  25         0.26955783
  26         1.48739702
  27         2.79382506
  28        -0.24578914
  29        -1.35624342
  30        -1.72563763
  31         0.15181444
  32         0.83769906
  33         0.99115248
  34        -0.08719748
  35        -0.48114823
  36        -0.41526386
  37         0.03653319
  38         0.20158701
  39         0.10827606
  40        -0.00952568
  41        -0.05256188
  42         0.00000001
  43         0.00000000
  44        -0.00000000
  45        -0.00000002
  46         0.00000001
  47        -0.00000001
  48        -0.00000000
  49         0.00000000
  50         0.00000001
  51        -0.00000000
  52         0.00000000
  53        -0.00000000
  54        -0.00000000
  55        -0.00000000
  56         0.00000000
  57        -0.00000000
  58        -0.00000000
  59         0.00000000
  60         0.00000001
  61        -0.00000000
Sym=    47a  
Ene=     5.6385
Spin= Alpha
Occup=    0.00000
   1         0.00000000
   2         0.00000000
   3         0.00000000
   4        -0.00000000
   5         0.00000000
   6        -0.00000000
   7         0.00000003
   8        -0.00000000
   9        -0.00000014
  10         0.00000022
  11        -0.00000013
  12         0.00000004
  13        -0.00000003
  14         0.00000002
  15         0.01058395
  16         0.01160300
  17         0.01969986
  18        -0.03222456
  19        -0.03532725
  20        -0.05997945
  21         0.62227696
  22         0.68219180
  23         1.15824165
  24        -1.43530685
  25        -1.57350283
  26        -2.67153099
  27         1.30874639
  28         1.43475671
  29         2.43596451
  30        -0.80836199
  31        -0.88619368
  32        -1.50460096
  33         0.46429794
  34         0.50900203
  35         0.86419589
  36        -0.19452724
  37        -0.21325693
  38        -0.36207275
  39         0.05072111
  40         0.05560470
  41         0.09440700
  42        -0.00000000
  43        -0.00000002
  44         0.00000000
  45        -0.00000001
  46        -0.00000001
  47         0.00000000
  48         0.00000001
  49        -0.00000000
  50         0.00000001
  51         0.00000000
  52        -0.00000000
  53        -0.00000000
  54        -0.00000000
  55        -0.00000000
  56        -0.00000000
  57         0.00000000
  58         0.00000001
  59        -0.00000000
  60         0.00000000
  61         0.00000000
Sym=    48a  
Ene=     5.6385
Spin= Alpha
Occup=    0.00000
   1        -0.00000000
   2         0.00000000
   3        -0.00000000
   4         0.00000000
   5        -0.00000000
   6         0.00000002
   7        -0.00000007
   8         0.00000024
   9        -0.00000056
  10         0.00000078
  11        -0.00000067
  12         0.00000041
  13        -0.00000017
  14         0.00000003
  15        -0.00349706
  16         0.02227450
  17        -0.01124061
  18         0.01064737
  19        -0.06781836
  20         0.03422387
  21        -0.20560755
  22         1.30961617
  23        -0.66088502
  24         0.47424209
  25        -3.02068240
  26         1.52435790
  27        -0.43242505
  28         2.75432894
  29        -1.38994523
  30         0.26709221
  31        -1.70124234
  32         0.85851534
  33        -0.15340944
  34         0.97714058
  35        -0.49310445
  36         0.06427406
  37        -0.40939327
  38         0.20659631
  39        -0.01675884
  40         0.10674537
  41        -0.05386801
  42        -0.00000000
  43         0.00000001
  44        -0.00000001
  45        -0.00000000
  46        -0.00000002
  47         0.00000000
  48        -0.00000000
  49         0.00000000
  50         0.00000000
  51         0.00000001
  52         0.00000000
  53         0.00000000
  54        -0.00000000
  55        -0.00000000
  56        -0.00000000
  57         0.00000000
  58        -0.00000000
  59         0.00000000
  60         0.00000000
  61         0.00000001
Sym=    49a  
Ene=    16.8320
Spin= Alpha
Occup=    0.00000
   1         0.00010328
   2        -0.00045225
   3         0.00729590
   4        -0.02295522
   5         0.17360896
   6        -0.48648920
   7         3.21214784
   8        -7.03948605
   9         7.57084656
  10        -5.08671033
  11         2.94660008
  12        -1.56098596
  13         0.59840810
  14        -0.15135786
  15        -0.00000001
  16         0.00000000
  17        -0.00000000
  18         0.00000012
  19        -0.00000003
  20         0.00000003
  21        -0.00000034
  22         0.00000008
  23        -0.00000009
  24         0.00000027
  25        -0.00000006
  26         0.00000007
  27        -0.00000020
  28         0.00000004
  29        -0.00000005
  30         0.00000007
  31        -0.00000001
  32         0.00000001
  33        -0.00000008
  34         0.00000002
  35        -0.00000002
  36         0.00000003
  37        -0.00000001
  38         0.00000001
  39        -0.00000001
  40         0.00000000
  41        -0.00000000
  42         0.00000000
  43        -0.00000000
  44         0.00000000
  45        -0.00000000
  46         0.00000000
  47        -0.00000000
  48        -0.00000000
  49         0.00000000
  50         0.00000000
  51        -0.00000000
  52         0.00000000
  53         0.00000000
  54        -0.00000000
  55        -0.00000000
  56         0.00000000
  57         0.00000000
  58         0.00000000
  59        -0.00000000
  60         0.00000000
  61         0.00000000
Sym=    50a  
Ene=    21.8830
Spin= Alpha
Occup=    0.00000
   1         0.00000000
   2        -0.00000000
   3         0.00000000
   4        -0.00000000
   5         0.00000001
   6        -0.00000002
   7         0.00000019
   8        -0.00000045
   9         0.00000045
  10        -0.00000022
  11         0.00000005
  12         0.00000001
  13        -0.00000000
  14        -0.00000001
  15         0.02445684
  16        -0.03279189
  17         0.04792788
  18        -0.65337860
  19         0.87605429
  20        -1.28042110
  21         1.07030309
  22        -1.43506938
  23         2.09746488
  24        -0.81926553
  25         1.09847657
  26        -1.60550847
  27         0.52894424
  28        -0.70921189
  29         1.03656804
  30        -0.33364131
  31         0.44734844
  32        -0.65383436
  33         0.17032195
  34        -0.22836879
  35         0.33377866
  36        -0.07754985
  37         0.10397936
  38        -0.15197388
  39         0.02036806
  40        -0.02730963
  41         0.03991513
  42        -0.00000000
  43         0.00000000
  44        -0.00000000
  45         0.00000000
  46        -0.00000000
  47        -0.00000000
  48         0.00000000
  49        -0.00000000
  50         0.00000000
  51        -0.00000000
  52         0.00000000
  53        -0.00000000
  54         0.00000000
  55         0.00000000
  56         0.00000000
  57        -0.00000000
  58        -0.00000000
  59         0.00000000
  60        -0.00000000
  61         0.00000000
Sym=    51a  
Ene=    21.8830
Spin= Alpha
Occup=    0.00000
   1        -0.00000000
   2         0.00000000
   3        -0.00000000
   4         0.00000000
   5        -0.00000001
   6         0.00000001
   7        -0.00000010
   8         0.00000024
   9        -0.00000030
  10         0.00000024
  11        -0.00000015
  12         0.00000008
  13        -0.00000003
  14         0.00000001
  15        -0.02660170
  16        -0.05255379
  17        -0.02238248
  18         0.71067978
  19         1.40400500
  20         0.59796082
  21        -1.16416847
  22        -2.29990834
  23        -0.97952292
  24         0.89111496
  25         1.76046919
  26         0.74977767
  27        -0.57533255
  28        -1.13661568
  29        -0.48408065
  30         0.36290159
  31         0.71694124
  32         0.30534277
  33        -0.18525915
  34        -0.36599435
  35        -0.15587572
  36         0.08435096
  37         0.16664211
  38         0.07097229
  39        -0.02215433
  40        -0.04376767
  41        -0.01864050
  42        -0.00000000
  43        -0.00000000
  44        -0.00000000
  45        -0.00000000
  46        -0.00000000
  47        -0.00000000
  48        -0.00000000
  49        -0.00000000
  50        -0.00000000
  51        -0.00000000
  52        -0.00000000
  53         0.00000000
  54        -0.00000000
  55         0.00000000
  56         0.00000000
  57         0.00000000
  58         0.00000000
  59         0.00000000
  60         0.00000000
  61         0.00000000
Sym=    52a  
Ene=    21.8830
Spin= Alpha
Occup=    0.00000
   1        -0.00000000
   2         0.00000000
   3        -0.00000000
   4         0.00000000
   5        -0.00000001
   6         0.00000002
   7        -0.00000020
   8         0.00000044
   9        -0.00000039
  10         0.00000013
  11         0.00000004
  12        -0.00000006
  13         0.00000003
  14         0.00000000
  15        -0.05162111
  16         0.01154633
  17         0.03424135
  18         1.37908797
  19        -0.30846679
  20        -0.91477735
  21        -2.25909159
  22         0.50530115
  23         1.49850180
  24         1.72922594
  25        -0.38678372
  26        -1.14703105
  27        -1.11644403
  28         0.24972004
  29         0.74056024
  30         0.70421759
  31        -0.15751551
  32        -0.46712198
  33        -0.35949898
  34         0.08041075
  35         0.23846307
  36         0.16368468
  37        -0.03661209
  38        -0.10857542
  39        -0.04299092
  40         0.00961597
  41         0.02851676
  42         0.00000000
  43         0.00000000
  44        -0.00000000
  45        -0.00000000
  46         0.00000000
  47         0.00000000
  48         0.00000000
  49        -0.00000000
  50        -0.00000000
  51         0.00000000
  52        -0.00000000
  53        -0.00000000
  54         0.00000000
  55         0.00000000
  56        -0.00000000
  57        -0.00000000
  58        -0.00000000
  59         0.00000000
  60         0.00000000
  61        -0.00000000
