[MOLDEN FORMAT]
[N_ATOMS]
                    1
[ATOMS] (AU)
BE          1      4           0.00000000      0.00000000      0.00000000
[5D]
[CHARGE] (MULLIKEN)
   0.0000000000000000     
[GTO] (AU)
   1
   s   1
  0.228322564E+05  0.100000000E+01
   s   1
  0.340266896E+04  0.100000000E+01
   s   1
  0.767193554E+03  0.100000000E+01
   s   1
  0.213646144E+03  0.100000000E+01
   s   1
  0.678284792E+02  0.100000000E+01
   s   1
  0.235825266E+02  0.100000000E+01
   s   1
  0.879986536E+01  0.100000000E+01
   s   1
  0.349930382E+01  0.100000000E+01
   s   1
  0.146521330E+01  0.100000000E+01
   s   1
  0.614092535E+00  0.100000000E+01
   s   1
  0.260005174E+00  0.100000000E+01
   s   1
  0.105113584E+00  0.100000000E+01
   s   1
  0.428088430E-01  0.100000000E+01
   s   1
  0.149826410E-01  0.100000000E+01
   p   1
  0.337101840E+02  0.100000000E+01
   p   1
  0.805764950E+01  0.100000000E+01
   p   1
  0.283647140E+01  0.100000000E+01
   p   1
  0.109996570E+01  0.100000000E+01
   p   1
  0.443396400E+00  0.100000000E+01
   p   1
  0.182226400E+00  0.100000000E+01
   p   1
  0.757241000E-01  0.100000000E+01
   p   1
  0.316854000E-01  0.100000000E+01
   p   1
  0.110899000E-01  0.100000000E+01
   d   1
  0.140000000E+01  0.100000000E+01
   d   1
  0.490000000E+00  0.100000000E+01
   d   1
  0.171500000E+00  0.100000000E+01
   d   1
  0.600250000E-01  0.100000000E+01
 
[MO]
Sym=     1a  
Ene=    -4.7332
Spin= Alpha
Occup=    2.00000
   1         0.00008371
   2         0.00045527
   3         0.00226096
   4         0.00954191
   5         0.03458136
   6         0.10511619
   7         0.24413667
   8         0.38523662
   9         0.31290278
  10         0.06601596
  11        -0.00230902
  12        -0.00046937
  13        -0.00090795
  14         0.00012849
  15        -0.00000000
  16         0.00000000
  17         0.00000000
  18         0.00000000
  19         0.00000000
  20        -0.00000000
  21        -0.00000000
  22         0.00000000
  23         0.00000000
  24         0.00000000
  25         0.00000000
  26        -0.00000000
  27         0.00000000
  28         0.00000000
  29         0.00000000
  30        -0.00000000
  31         0.00000000
  32        -0.00000000
  33        -0.00000000
  34         0.00000000
  35         0.00000000
  36         0.00000000
  37         0.00000000
  38        -0.00000000
  39        -0.00000000
  40         0.00000000
  41         0.00000000
  42        -0.00000000
  43         0.00000000
  44         0.00000000
  45         0.00000000
  46        -0.00000000
  47        -0.00000000
  48        -0.00000000
  49        -0.00000000
  50        -0.00000000
  51         0.00000000
  52        -0.00000000
  53         0.00000000
  54         0.00000000
  55         0.00000000
  56         0.00000000
  57        -0.00000000
  58        -0.00000000
  59         0.00000000
  60        -0.00000000
  61        -0.00000000
Sym=     2a  
Ene=    -0.3093
Spin= Alpha
Occup=    2.00000
   1        -0.00001584
   2        -0.00008520
   3        -0.00042707
   4        -0.00180092
   5        -0.00662196
   6        -0.02072468
   7        -0.05164288
   8        -0.09783820
   9        -0.13562490
  10        -0.06612466
  11         0.30733204
  12         0.62790865
  13         0.21576053
  14        -0.00394901
  15        -0.00000000
  16         0.00000000
  17        -0.00000000
  18         0.00000000
  19         0.00000000
  20         0.00000000
  21        -0.00000000
  22         0.00000000
  23        -0.00000000
  24         0.00000000
  25         0.00000000
  26         0.00000000
  27         0.00000000
  28         0.00000000
  29        -0.00000000
  30        -0.00000000
  31         0.00000000
  32         0.00000000
  33        -0.00000000
  34         0.00000000
  35        -0.00000000
  36         0.00000000
  37         0.00000000
  38         0.00000000
  39        -0.00000000
  40         0.00000000
  41        -0.00000000
  42         0.00000000
  43         0.00000000
  44         0.00000000
  45         0.00000000
  46        -0.00000000
  47         0.00000000
  48        -0.00000000
  49        -0.00000000
  50        -0.00000000
  51         0.00000000
  52         0.00000000
  53        -0.00000000
  54         0.00000000
  55         0.00000000
  56         0.00000000
  57         0.00000000
  58         0.00000000
  59        -0.00000000
  60        -0.00000000
  61        -0.00000000
Sym=     3a  
Ene=     3.0243
Spin= Alpha
Occup=    0.00000
   1        -0.00000000
   2        -0.00000000
   3        -0.00000000
   4        -0.00000000
   5        -0.00000000
   6        -0.00000000
   7        -0.00000000
   8        -0.00000000
   9        -0.00000000
  10        -0.00000000
  11         0.00000000
  12         0.00000000
  13         0.00000000
  14        -0.00000000
  15        -0.00000000
  16         0.00000000
  17         0.00005414
  18         0.00000000
  19        -0.00000000
  20        -0.00048381
  21        -0.00000000
  22         0.00000000
  23         0.00233991
  24         0.00000000
  25         0.00000000
  26        -0.00853733
  27        -0.00000000
  28        -0.00000000
  29         0.02698798
  30         0.00000000
  31         0.00000000
  32        -0.07842331
  33        -0.00000000
  34         0.00000000
  35         0.21105341
  36         0.00000000
  37         0.00000000
  38        -0.48537986
  39        -0.00000000
  40        -0.00000000
  41         1.25839548
  42         0.00000000
  43         0.00000000
  44         0.00000000
  45         0.00000000
  46        -0.00000000
  47         0.00000000
  48         0.00000000
  49        -0.00000000
  50        -0.00000000
  51         0.00000000
  52         0.00000000
  53        -0.00000000
  54         0.00000000
  55         0.00000000
  56         0.00000000
  57         0.00000000
  58         0.00000000
  59        -0.00000000
  60        -0.00000000
  61        -0.00000000
Sym=     4a  
Ene=     3.0243
Spin= Alpha
Occup=    0.00000
   1        -0.00000000
   2        -0.00000000
   3        -0.00000000
   4        -0.00000000
   5        -0.00000000
   6        -0.00000000
   7        -0.00000000
   8        -0.00000000
   9        -0.00000000
  10        -0.00000000
  11        -0.00000000
  12        -0.00000000
  13        -0.00000000
  14         0.00000000
  15         0.00000000
  16         0.00005414
  17         0.00000000
  18        -0.00000000
  19        -0.00048381
  20        -0.00000000
  21         0.00000000
  22         0.00233991
  23         0.00000000
  24        -0.00000000
  25        -0.00853733
  26        -0.00000000
  27         0.00000000
  28         0.02698798
  29         0.00000000
  30        -0.00000000
  31        -0.07842331
  32        -0.00000000
  33         0.00000000
  34         0.21105341
  35         0.00000000
  36        -0.00000000
  37        -0.48537986
  38        -0.00000000
  39         0.00000000
  40         1.25839548
  41         0.00000000
  42         0.00000000
  43        -0.00000000
  44        -0.00000000
  45        -0.00000000
  46         0.00000000
  47         0.00000000
  48         0.00000000
  49         0.00000000
  50         0.00000000
  51        -0.00000000
  52        -0.00000000
  53        -0.00000000
  54        -0.00000000
  55        -0.00000000
  56        -0.00000000
  57         0.00000000
  58         0.00000000
  59         0.00000000
  60         0.00000000
  61         0.00000000
Sym=     5a  
Ene=     3.0243
Spin= Alpha
Occup=    0.00000
   1         0.00000000
   2         0.00000000
   3         0.00000000
   4         0.00000000
   5         0.00000000
   6         0.00000000
   7         0.00000000
   8         0.00000000
   9         0.00000000
  10        -0.00000000
  11         0.00000000
  12         0.00000000
  13         0.00000000
  14        -0.00000000
  15         0.00005414
  16         0.00000000
  17        -0.00000000
  18        -0.00048381
  19         0.00000000
  20         0.00000000
  21         0.00233991
  22         0.00000000
  23        -0.00000000
  24        -0.00853733
  25         0.00000000
  26         0.00000000
  27         0.02698798
  28         0.00000000
  29        -0.00000000
  30        -0.07842331
  31         0.00000000
  32         0.00000000
  33         0.21105341
  34         0.00000000
  35        -0.00000000
  36        -0.48537986
  37         0.00000000
  38         0.00000000
  39         1.25839548
  40         0.00000000
  41        -0.00000000
  42         0.00000000
  43         0.00000000
  44         0.00000000
  45         0.00000000
  46        -0.00000000
  47         0.00000000
  48        -0.00000000
  49        -0.00000000
  50        -0.00000000
  51         0.00000000
  52         0.00000000
  53         0.00000000
  54         0.00000000
  55         0.00000000
  56         0.00000000
  57         0.00000000
  58         0.00000000
  59        -0.00000000
  60        -0.00000000
  61        -0.00000000
Sym=     6a  
Ene=     3.0390
Spin= Alpha
Occup=    0.00000
   1        -0.00000018
   2         0.00000216
   3        -0.00001538
   4         0.00008372
   5        -0.00036139
   6         0.00154611
   7        -0.00463184
   8         0.01985805
   9        -0.03795167
  10         0.14633828
  11        -0.27988098
  12         0.67142535
  13        -1.83749310
  14         1.93625946
  15         0.00000000
  16         0.00000000
  17         0.00000000
  18         0.00000000
  19         0.00000000
  20        -0.00000000
  21        -0.00000000
  22        -0.00000000
  23         0.00000000
  24        -0.00000000
  25         0.00000000
  26        -0.00000000
  27         0.00000000
  28        -0.00000000
  29        -0.00000000
  30        -0.00000000
  31         0.00000000
  32        -0.00000000
  33        -0.00000000
  34        -0.00000000
  35         0.00000000
  36         0.00000000
  37         0.00000000
  38        -0.00000000
  39        -0.00000000
  40        -0.00000000
  41         0.00000000
  42         0.00000000
  43         0.00000000
  44        -0.00000000
  45        -0.00000000
  46         0.00000000
  47         0.00000000
  48        -0.00000000
  49         0.00000000
  50         0.00000000
  51         0.00000000
  52        -0.00000000
  53         0.00000000
  54        -0.00000000
  55        -0.00000000
  56        -0.00000000
  57         0.00000000
  58        -0.00000000
  59         0.00000000
  60         0.00000000
  61         0.00000000
Sym=     7a  
Ene=     3.0954
Spin= Alpha
Occup=    0.00000
   1         0.00000000
   2         0.00000000
   3         0.00000000
   4         0.00000000
   5         0.00000000
   6         0.00000000
   7         0.00000000
   8         0.00000000
   9         0.00000000
  10         0.00000000
  11        -0.00000000
  12        -0.00000000
  13        -0.00000000
  14         0.00000000
  15         0.00000000
  16        -0.00000000
  17        -0.00017520
  18        -0.00000000
  19        -0.00000000
  20         0.00156768
  21         0.00000000
  22         0.00000000
  23        -0.00760347
  24        -0.00000000
  25        -0.00000000
  26         0.02792513
  27         0.00000000
  28         0.00000000
  29        -0.08961760
  30         0.00000000
  31        -0.00000000
  32         0.26936035
  33         0.00000000
  34        -0.00000000
  35        -0.77967746
  36        -0.00000000
  37         0.00000000
  38         2.05621769
  39         0.00000000
  40        -0.00000000
  41        -1.01234483
  42        -0.00000000
  43        -0.00000000
  44        -0.00000000
  45        -0.00000000
  46         0.00000000
  47        -0.00000000
  48         0.00000000
  49         0.00000000
  50         0.00000000
  51        -0.00000000
  52        -0.00000000
  53         0.00000000
  54        -0.00000000
  55        -0.00000000
  56        -0.00000000
  57        -0.00000000
  58        -0.00000000
  59         0.00000000
  60         0.00000000
  61         0.00000000
Sym=     8a  
Ene=     3.0954
Spin= Alpha
Occup=    0.00000
   1        -0.00000000
   2        -0.00000000
   3        -0.00000000
   4        -0.00000000
   5        -0.00000000
   6        -0.00000000
   7        -0.00000000
   8        -0.00000000
   9        -0.00000000
  10        -0.00000000
  11        -0.00000000
  12        -0.00000000
  13        -0.00000000
  14         0.00000000
  15         0.00000000
  16        -0.00017520
  17         0.00000000
  18        -0.00000000
  19         0.00156768
  20        -0.00000000
  21         0.00000000
  22        -0.00760347
  23         0.00000000
  24        -0.00000000
  25         0.02792513
  26        -0.00000000
  27         0.00000000
  28        -0.08961760
  29         0.00000000
  30         0.00000000
  31         0.26936035
  32        -0.00000000
  33         0.00000000
  34        -0.77967746
  35         0.00000000
  36        -0.00000000
  37         2.05621769
  38        -0.00000000
  39         0.00000000
  40        -1.01234483
  41         0.00000000
  42         0.00000000
  43        -0.00000000
  44        -0.00000000
  45        -0.00000000
  46         0.00000000
  47         0.00000000
  48         0.00000000
  49         0.00000000
  50         0.00000000
  51        -0.00000000
  52        -0.00000000
  53        -0.00000000
  54        -0.00000000
  55        -0.00000000
  56        -0.00000000
  57         0.00000000
  58         0.00000000
  59         0.00000000
  60         0.00000000
  61         0.00000000
Sym=     9a  
Ene=     3.0954
Spin= Alpha
Occup=    0.00000
   1        -0.00000000
   2        -0.00000000
   3        -0.00000000
   4        -0.00000000
   5        -0.00000000
   6        -0.00000000
   7        -0.00000000
   8        -0.00000000
   9        -0.00000000
  10        -0.00000000
  11        -0.00000000
  12        -0.00000000
  13        -0.00000000
  14         0.00000000
  15        -0.00017520
  16        -0.00000000
  17         0.00000000
  18         0.00156768
  19        -0.00000000
  20        -0.00000000
  21        -0.00760347
  22        -0.00000000
  23         0.00000000
  24         0.02792513
  25        -0.00000000
  26        -0.00000000
  27        -0.08961760
  28        -0.00000000
  29         0.00000000
  30         0.26936035
  31        -0.00000000
  32        -0.00000000
  33        -0.77967746
  34        -0.00000000
  35         0.00000000
  36         2.05621769
  37        -0.00000000
  38        -0.00000000
  39        -1.01234483
  40        -0.00000000
  41         0.00000000
  42         0.00000000
  43        -0.00000000
  44        -0.00000000
  45        -0.00000000
  46         0.00000000
  47         0.00000000
  48         0.00000000
  49         0.00000000
  50         0.00000000
  51        -0.00000000
  52        -0.00000000
  53        -0.00000000
  54        -0.00000000
  55        -0.00000000
  56        -0.00000000
  57         0.00000000
  58        -0.00000000
  59         0.00000000
  60         0.00000000
  61         0.00000000
Sym=    10a  
Ene=     3.1944
Spin= Alpha
Occup=    0.00000
   1         0.00000000
   2        -0.00000000
   3         0.00000000
   4        -0.00000000
   5         0.00000000
   6        -0.00000000
   7         0.00000000
   8        -0.00000000
   9         0.00000000
  10        -0.00000000
  11         0.00000000
  12        -0.00000000
  13         0.00000000
  14        -0.00000000
  15         0.00000000
  16         0.00000000
  17        -0.00000000
  18         0.00000000
  19        -0.00000000
  20         0.00000000
  21        -0.00000000
  22         0.00000000
  23        -0.00000000
  24         0.00000000
  25         0.00000000
  26         0.00000000
  27        -0.00000000
  28        -0.00000000
  29        -0.00000000
  30         0.00000000
  31         0.00000000
  32         0.00000000
  33         0.00000000
  34        -0.00000000
  35         0.00000000
  36        -0.00000000
  37         0.00000000
  38        -0.00000000
  39        -0.00000000
  40        -0.00000000
  41         0.00000000
  42        -0.01161297
  43        -0.00426296
  44         0.00091340
  45         0.00264729
  46         0.00000001
  47         0.05937728
  48         0.02179656
  49        -0.00467024
  50        -0.01353563
  51        -0.00000003
  52        -0.24934069
  53        -0.09152944
  54         0.01961155
  55         0.05683962
  56         0.00000013
  57         1.04751077
  58         0.38452638
  59        -0.08239053
  60        -0.23879022
  61        -0.00000055
Sym=    11a  
Ene=     3.1944
Spin= Alpha
Occup=    0.00000
   1        -0.00000000
   2         0.00000000
   3        -0.00000000
   4         0.00000000
   5        -0.00000000
   6         0.00000000
   7        -0.00000000
   8         0.00000000
   9        -0.00000000
  10         0.00000000
  11        -0.00000000
  12         0.00000000
  13        -0.00000000
  14        -0.00000000
  15        -0.00000000
  16        -0.00000000
  17         0.00000000
  18        -0.00000000
  19         0.00000000
  20        -0.00000000
  21         0.00000000
  22        -0.00000000
  23         0.00000000
  24        -0.00000000
  25        -0.00000000
  26        -0.00000000
  27         0.00000000
  28         0.00000000
  29         0.00000000
  30         0.00000000
  31        -0.00000000
  32        -0.00000000
  33        -0.00000000
  34         0.00000000
  35        -0.00000000
  36         0.00000000
  37        -0.00000000
  38         0.00000000
  39         0.00000000
  40         0.00000000
  41        -0.00000000
  42        -0.00221831
  43        -0.00151605
  44         0.00060471
  45        -0.01238109
  46        -0.00000007
  47         0.01134223
  48         0.00775158
  49        -0.00309189
  50         0.06330468
  51         0.00000033
  52        -0.04762898
  53        -0.03255092
  54         0.01298365
  55        -0.26583287
  56        -0.00000140
  57         0.20009519
  58         0.13675040
  59        -0.05454591
  60         1.11679644
  61         0.00000587
Sym=    12a  
Ene=     3.1944
Spin= Alpha
Occup=    0.00000
   1        -0.00000000
   2        -0.00000000
   3         0.00000000
   4        -0.00000000
   5         0.00000000
   6        -0.00000000
   7         0.00000000
   8        -0.00000000
   9         0.00000000
  10        -0.00000000
  11         0.00000000
  12        -0.00000000
  13         0.00000000
  14        -0.00000000
  15        -0.00000000
  16         0.00000000
  17         0.00000000
  18         0.00000000
  19        -0.00000000
  20        -0.00000000
  21        -0.00000000
  22         0.00000000
  23         0.00000000
  24         0.00000000
  25         0.00000000
  26        -0.00000000
  27        -0.00000000
  28        -0.00000000
  29        -0.00000000
  30        -0.00000000
  31         0.00000000
  32        -0.00000000
  33        -0.00000000
  34        -0.00000000
  35         0.00000000
  36         0.00000000
  37         0.00000000
  38        -0.00000000
  39        -0.00000000
  40        -0.00000000
  41         0.00000000
  42        -0.00000003
  43         0.00000010
  44        -0.00000005
  45         0.00000006
  46        -0.01268370
  47         0.00000017
  48        -0.00000050
  49         0.00000025
  50        -0.00000030
  51         0.06485196
  52        -0.00000071
  53         0.00000210
  54        -0.00000107
  55         0.00000125
  56        -0.27233027
  57         0.00000298
  58        -0.00000881
  59         0.00000449
  60        -0.00000525
  61         1.14409279
Sym=    13a  
Ene=     3.1944
Spin= Alpha
Occup=    0.00000
   1         0.00000000
   2        -0.00000000
   3        -0.00000000
   4         0.00000000
   5        -0.00000000
   6         0.00000000
   7        -0.00000000
   8         0.00000000
   9        -0.00000000
  10         0.00000000
  11        -0.00000000
  12         0.00000000
  13        -0.00000000
  14         0.00000000
  15         0.00000000
  16         0.00000000
  17         0.00000000
  18         0.00000000
  19        -0.00000000
  20        -0.00000000
  21        -0.00000000
  22        -0.00000000
  23         0.00000000
  24         0.00000000
  25         0.00000000
  26        -0.00000000
  27         0.00000000
  28        -0.00000000
  29        -0.00000000
  30        -0.00000000
  31         0.00000000
  32        -0.00000000
  33         0.00000000
  34        -0.00000000
  35         0.00000000
  36         0.00000000
  37         0.00000000
  38        -0.00000000
  39        -0.00000000
  40        -0.00000000
  41         0.00000000
  42         0.00446749
  43        -0.01054457
  44         0.00540006
  45         0.00075448
  46        -0.00000011
  47        -0.02284233
  48         0.05391454
  49        -0.02761059
  50        -0.00385768
  51         0.00000057
  52         0.09592091
  53        -0.22640121
  54         0.11594405
  55         0.01619939
  56        -0.00000237
  57        -0.40297548
  58         0.95113921
  59        -0.48709516
  60        -0.06805561
  61         0.00000997
Sym=    14a  
Ene=     3.1944
Spin= Alpha
Occup=    0.00000
   1         0.00000000
   2        -0.00000000
   3         0.00000000
   4        -0.00000000
   5         0.00000000
   6        -0.00000000
   7         0.00000000
   8        -0.00000000
   9         0.00000000
  10        -0.00000000
  11         0.00000000
  12        -0.00000000
  13         0.00000000
  14        -0.00000000
  15         0.00000000
  16         0.00000000
  17         0.00000000
  18        -0.00000000
  19        -0.00000000
  20        -0.00000000
  21        -0.00000000
  22         0.00000000
  23         0.00000000
  24         0.00000000
  25         0.00000000
  26        -0.00000000
  27        -0.00000000
  28        -0.00000000
  29        -0.00000000
  30        -0.00000000
  31        -0.00000000
  32         0.00000000
  33         0.00000000
  34         0.00000000
  35         0.00000000
  36        -0.00000000
  37        -0.00000000
  38        -0.00000000
  39        -0.00000000
  40        -0.00000000
  41         0.00000000
  42         0.00106579
  43        -0.00540529
  44        -0.01142434
  45        -0.00008707
  46        -0.00000000
  47        -0.00544940
  48         0.02763732
  49         0.05841285
  50         0.00044517
  51         0.00000000
  52         0.02288347
  53        -0.11605630
  54        -0.24529077
  55        -0.00186940
  56        -0.00000000
  57        -0.09613624
  58         0.48756671
  59         1.03049656
  60         0.00785357
  61         0.00000000
Sym=    15a  
Ene=     3.2549
Spin= Alpha
Occup=    0.00000
   1         0.00000084
   2        -0.00001030
   3         0.00007393
   4        -0.00039337
   5         0.00180635
   6        -0.00668679
   7         0.02726509
   8        -0.07122318
   9         0.27103372
  10        -0.55117586
  11         1.73500192
  12        -4.33354117
  13         4.39442174
  14        -1.39455484
  15         0.00000000
  16         0.00000000
  17        -0.00000000
  18         0.00000000
  19        -0.00000000
  20         0.00000000
  21        -0.00000000
  22         0.00000000
  23        -0.00000000
  24         0.00000000
  25         0.00000000
  26         0.00000000
  27        -0.00000000
  28        -0.00000000
  29        -0.00000000
  30         0.00000000
  31         0.00000000
  32         0.00000000
  33         0.00000000
  34         0.00000000
  35         0.00000000
  36        -0.00000000
  37         0.00000000
  38        -0.00000000
  39        -0.00000000
  40        -0.00000000
  41         0.00000000
  42        -0.00000000
  43        -0.00000000
  44         0.00000000
  45        -0.00000000
  46         0.00000000
  47         0.00000000
  48         0.00000000
  49        -0.00000000
  50         0.00000000
  51        -0.00000000
  52        -0.00000000
  53        -0.00000000
  54         0.00000000
  55        -0.00000000
  56         0.00000000
  57         0.00000000
  58         0.00000000
  59        -0.00000000
  60         0.00000000
  61        -0.00000000
Sym=    16a  
Ene=     3.2725
Spin= Alpha
Occup=    0.00000
   1        -0.00000000
   2        -0.00000000
   3        -0.00000000
   4        -0.00000000
   5        -0.00000000
   6        -0.00000000
   7        -0.00000000
   8        -0.00000000
   9        -0.00000000
  10        -0.00000000
  11         0.00000000
  12         0.00000000
  13         0.00000000
  14        -0.00000000
  15        -0.00000000
  16         0.00000000
  17         0.00048206
  18         0.00000000
  19         0.00000000
  20        -0.00432606
  21        -0.00000000
  22        -0.00000000
  23         0.02112083
  24         0.00000000
  25         0.00000000
  26        -0.07873550
  27        -0.00000000
  28        -0.00000000
  29         0.26110420
  30        -0.00000000
  31         0.00000000
  32        -0.83986870
  33        -0.00000000
  34         0.00000000
  35         2.70051420
  36         0.00000000
  37         0.00000000
  38        -2.09522173
  39        -0.00000000
  40        -0.00000000
  41         0.62439656
  42         0.00000000
  43         0.00000000
  44         0.00000000
  45         0.00000000
  46        -0.00000000
  47         0.00000000
  48        -0.00000000
  49        -0.00000000
  50        -0.00000000
  51         0.00000000
  52         0.00000000
  53        -0.00000000
  54         0.00000000
  55         0.00000000
  56         0.00000000
  57         0.00000000
  58         0.00000000
  59        -0.00000000
  60        -0.00000000
  61        -0.00000000
Sym=    17a  
Ene=     3.2725
Spin= Alpha
Occup=    0.00000
   1        -0.00000000
   2        -0.00000000
   3        -0.00000000
   4        -0.00000000
   5        -0.00000000
   6        -0.00000000
   7        -0.00000000
   8        -0.00000000
   9        -0.00000000
  10        -0.00000000
  11        -0.00000000
  12        -0.00000000
  13        -0.00000000
  14         0.00000000
  15         0.00000000
  16         0.00048206
  17         0.00000000
  18        -0.00000000
  19        -0.00432606
  20        -0.00000000
  21         0.00000000
  22         0.02112083
  23         0.00000000
  24        -0.00000000
  25        -0.07873550
  26        -0.00000000
  27        -0.00000000
  28         0.26110420
  29         0.00000000
  30         0.00000000
  31        -0.83986870
  32        -0.00000000
  33         0.00000000
  34         2.70051420
  35         0.00000000
  36        -0.00000000
  37        -2.09522173
  38        -0.00000000
  39         0.00000000
  40         0.62439656
  41         0.00000000
  42         0.00000000
  43        -0.00000000
  44        -0.00000000
  45        -0.00000000
  46         0.00000000
  47         0.00000000
  48         0.00000000
  49         0.00000000
  50         0.00000000
  51        -0.00000000
  52        -0.00000000
  53        -0.00000000
  54        -0.00000000
  55        -0.00000000
  56        -0.00000000
  57         0.00000000
  58         0.00000000
  59         0.00000000
  60         0.00000000
  61         0.00000000
Sym=    18a  
Ene=     3.2725
Spin= Alpha
Occup=    0.00000
   1         0.00000000
   2         0.00000000
   3         0.00000000
   4         0.00000000
   5         0.00000000
   6         0.00000000
   7         0.00000000
   8         0.00000000
   9         0.00000000
  10         0.00000000
  11         0.00000000
  12         0.00000000
  13         0.00000000
  14        -0.00000000
  15         0.00048206
  16         0.00000000
  17        -0.00000000
  18        -0.00432606
  19         0.00000000
  20         0.00000000
  21         0.02112083
  22         0.00000000
  23        -0.00000000
  24        -0.07873550
  25         0.00000000
  26         0.00000000
  27         0.26110420
  28         0.00000000
  29        -0.00000000
  30        -0.83986870
  31         0.00000000
  32         0.00000000
  33         2.70051420
  34         0.00000000
  35        -0.00000000
  36        -2.09522173
  37         0.00000000
  38         0.00000000
  39         0.62439656
  40         0.00000000
  41        -0.00000000
  42        -0.00000000
  43         0.00000000
  44         0.00000000
  45         0.00000000
  46        -0.00000000
  47        -0.00000000
  48        -0.00000000
  49        -0.00000000
  50        -0.00000000
  51         0.00000000
  52        -0.00000000
  53         0.00000000
  54         0.00000000
  55         0.00000000
  56         0.00000000
  57        -0.00000000
  58        -0.00000000
  59         0.00000000
  60        -0.00000000
  61        -0.00000000
Sym=    19a  
Ene=     3.6948
Spin= Alpha
Occup=    0.00000
   1         0.00000000
   2        -0.00000000
   3         0.00000000
   4        -0.00000000
   5         0.00000000
   6        -0.00000000
   7         0.00000000
   8        -0.00000000
   9         0.00000000
  10        -0.00000000
  11         0.00000000
  12        -0.00000000
  13         0.00000000
  14        -0.00000000
  15        -0.00000000
  16         0.00000000
  17        -0.00000000
  18        -0.00000000
  19        -0.00000000
  20         0.00000000
  21        -0.00000000
  22         0.00000000
  23        -0.00000000
  24         0.00000000
  25        -0.00000000
  26         0.00000000
  27        -0.00000000
  28         0.00000000
  29        -0.00000000
  30         0.00000000
  31        -0.00000000
  32         0.00000000
  33        -0.00000000
  34         0.00000000
  35        -0.00000000
  36         0.00000000
  37        -0.00000000
  38         0.00000000
  39        -0.00000000
  40         0.00000000
  41        -0.00000000
  42         0.04758434
  43        -0.00928561
  44        -0.00104075
  45        -0.00589664
  46         0.00000003
  47        -0.26682343
  48         0.05206793
  49         0.00583587
  50         0.03306467
  51        -0.00000017
  52         1.42875962
  53        -0.27880817
  54        -0.03124932
  55        -0.17705144
  56         0.00000092
  57        -0.67997981
  58         0.13269127
  59         0.01487227
  60         0.08426288
  61        -0.00000044
Sym=    20a  
Ene=     3.6948
Spin= Alpha
Occup=    0.00000
   1         0.00000000
   2         0.00000000
   3        -0.00000000
   4         0.00000000
   5        -0.00000000
   6         0.00000000
   7        -0.00000000
   8         0.00000000
   9        -0.00000000
  10         0.00000000
  11        -0.00000000
  12         0.00000000
  13        -0.00000000
  14         0.00000000
  15         0.00000000
  16        -0.00000000
  17        -0.00000000
  18        -0.00000000
  19        -0.00000000
  20         0.00000000
  21         0.00000000
  22        -0.00000000
  23        -0.00000000
  24        -0.00000000
  25        -0.00000000
  26         0.00000000
  27        -0.00000000
  28        -0.00000000
  29        -0.00000000
  30         0.00000000
  31        -0.00000000
  32         0.00000000
  33         0.00000000
  34         0.00000000
  35        -0.00000000
  36        -0.00000000
  37        -0.00000000
  38         0.00000000
  39         0.00000000
  40        -0.00000000
  41        -0.00000000
  42         0.00000006
  43         0.00000001
  44         0.00000000
  45         0.00000071
  46         0.04885023
  47        -0.00000032
  48        -0.00000003
  49        -0.00000000
  50        -0.00000398
  51        -0.27392178
  52         0.00000173
  53         0.00000017
  54         0.00000002
  55         0.00002132
  56         1.46676916
  57        -0.00000083
  58        -0.00000008
  59        -0.00000001
  60        -0.00001014
  61        -0.69806943
Sym=    21a  
Ene=     3.6948
Spin= Alpha
Occup=    0.00000
   1        -0.00000000
   2         0.00000000
   3        -0.00000000
   4         0.00000000
   5        -0.00000000
   6         0.00000000
   7        -0.00000000
   8         0.00000000
   9        -0.00000000
  10         0.00000000
  11        -0.00000000
  12         0.00000000
  13        -0.00000000
  14         0.00000000
  15        -0.00000000
  16        -0.00000000
  17         0.00000000
  18         0.00000000
  19         0.00000000
  20        -0.00000000
  21        -0.00000000
  22        -0.00000000
  23         0.00000000
  24         0.00000000
  25         0.00000000
  26        -0.00000000
  27         0.00000000
  28        -0.00000000
  29         0.00000000
  30        -0.00000000
  31         0.00000000
  32        -0.00000000
  33         0.00000000
  34         0.00000000
  35         0.00000000
  36        -0.00000000
  37        -0.00000000
  38        -0.00000000
  39        -0.00000000
  40         0.00000000
  41         0.00000000
  42         0.00600498
  43        -0.00001352
  44         0.00000101
  45         0.04847974
  46        -0.00000071
  47        -0.03367219
  48         0.00007581
  49        -0.00000565
  50        -0.27184429
  51         0.00000399
  52         0.18030450
  53        -0.00040593
  54         0.00003028
  55         1.45564484
  56        -0.00002137
  57        -0.08581109
  58         0.00019319
  59        -0.00001441
  60        -0.69277511
  61         0.00001017
Sym=    22a  
Ene=     3.6948
Spin= Alpha
Occup=    0.00000
   1        -0.00000000
   2         0.00000000
   3        -0.00000000
   4         0.00000000
   5        -0.00000000
   6         0.00000000
   7        -0.00000000
   8         0.00000000
   9        -0.00000000
  10         0.00000000
  11        -0.00000000
  12         0.00000000
  13        -0.00000000
  14         0.00000000
  15        -0.00000000
  16        -0.00000000
  17         0.00000000
  18        -0.00000000
  19         0.00000000
  20        -0.00000000
  21         0.00000000
  22        -0.00000000
  23         0.00000000
  24        -0.00000000
  25        -0.00000000
  26        -0.00000000
  27         0.00000000
  28         0.00000000
  29         0.00000000
  30        -0.00000000
  31        -0.00000000
  32        -0.00000000
  33        -0.00000000
  34        -0.00000000
  35        -0.00000000
  36         0.00000000
  37        -0.00000000
  38         0.00000000
  39         0.00000000
  40         0.00000000
  41        -0.00000000
  42        -0.00277771
  43        -0.01946108
  44         0.04471892
  45         0.00033771
  46         0.00000000
  47         0.01557568
  48         0.10912566
  49        -0.25075594
  50        -0.00189365
  51        -0.00000000
  52        -0.08340310
  53        -0.58433527
  54         1.34272304
  55         0.01013991
  56         0.00000000
  57         0.03969347
  58         0.27809869
  59        -0.63903301
  60        -0.00482582
  61        -0.00000000
Sym=    23a  
Ene=     3.6948
Spin= Alpha
Occup=    0.00000
   1         0.00000000
   2        -0.00000000
   3         0.00000000
   4        -0.00000000
   5         0.00000000
   6        -0.00000000
   7         0.00000000
   8        -0.00000000
   9         0.00000000
  10        -0.00000000
  11         0.00000000
  12        -0.00000000
  13         0.00000000
  14        -0.00000000
  15         0.00000000
  16        -0.00000000
  17        -0.00000000
  18        -0.00000000
  19        -0.00000000
  20         0.00000000
  21         0.00000000
  22         0.00000000
  23        -0.00000000
  24         0.00000000
  25        -0.00000000
  26         0.00000000
  27        -0.00000000
  28         0.00000000
  29        -0.00000000
  30         0.00000000
  31        -0.00000000
  32         0.00000000
  33        -0.00000000
  34         0.00000000
  35        -0.00000000
  36        -0.00000000
  37        -0.00000000
  38         0.00000000
  39         0.00000000
  40         0.00000000
  41        -0.00000000
  42         0.00884876
  43         0.04383365
  44         0.01963365
  45        -0.00108424
  46        -0.00000000
  47        -0.04961835
  48        -0.24579190
  49        -0.11009333
  50         0.00607976
  51         0.00000000
  52         0.26569143
  53         1.31614205
  54         0.58951682
  55        -0.03255530
  56        -0.00000000
  57        -0.12644871
  58        -0.62638250
  59        -0.28056471
  60         0.01549382
  61         0.00000000
Sym=    24a  
Ene=     3.6998
Spin= Alpha
Occup=    0.00000
   1         0.00000000
   2         0.00000000
   3         0.00000000
   4         0.00000000
   5         0.00000000
   6         0.00000000
   7         0.00000000
   8         0.00000000
   9         0.00000000
  10         0.00000000
  11        -0.00000000
  12        -0.00000000
  13        -0.00000000
  14         0.00000000
  15        -0.00000000
  16        -0.00000000
  17        -0.00131252
  18        -0.00000000
  19        -0.00000000
  20         0.01186021
  21         0.00000000
  22         0.00000000
  23        -0.05879218
  24        -0.00000000
  25        -0.00000000
  26         0.22666064
  27         0.00000000
  28         0.00000000
  29        -0.80632728
  30         0.00000000
  31        -0.00000000
  32         2.90007643
  33         0.00000000
  34        -0.00000000
  35        -2.83517965
  36        -0.00000000
  37        -0.00000000
  38         1.40373043
  39         0.00000000
  40         0.00000000
  41        -0.36341970
  42        -0.00000000
  43        -0.00000000
  44        -0.00000000
  45        -0.00000000
  46         0.00000000
  47        -0.00000000
  48         0.00000000
  49         0.00000000
  50         0.00000000
  51        -0.00000000
  52        -0.00000000
  53         0.00000000
  54        -0.00000000
  55        -0.00000000
  56        -0.00000000
  57        -0.00000000
  58        -0.00000000
  59         0.00000000
  60         0.00000000
  61         0.00000000
Sym=    25a  
Ene=     3.6998
Spin= Alpha
Occup=    0.00000
   1        -0.00000000
   2        -0.00000000
   3        -0.00000000
   4        -0.00000000
   5        -0.00000000
   6        -0.00000000
   7        -0.00000000
   8        -0.00000000
   9        -0.00000000
  10        -0.00000000
  11        -0.00000000
  12        -0.00000000
  13        -0.00000000
  14         0.00000000
  15         0.00000000
  16        -0.00131252
  17         0.00000000
  18        -0.00000000
  19         0.01186021
  20        -0.00000000
  21         0.00000000
  22        -0.05879218
  23         0.00000000
  24        -0.00000000
  25         0.22666064
  26        -0.00000000
  27        -0.00000000
  28        -0.80632728
  29         0.00000000
  30         0.00000000
  31         2.90007643
  32        -0.00000000
  33         0.00000000
  34        -2.83517965
  35         0.00000000
  36        -0.00000000
  37         1.40373043
  38        -0.00000000
  39         0.00000000
  40        -0.36341970
  41         0.00000000
  42         0.00000000
  43        -0.00000000
  44        -0.00000000
  45        -0.00000000
  46         0.00000000
  47         0.00000000
  48         0.00000000
  49         0.00000000
  50         0.00000000
  51        -0.00000000
  52        -0.00000000
  53        -0.00000000
  54        -0.00000000
  55        -0.00000000
  56        -0.00000000
  57         0.00000000
  58         0.00000000
  59         0.00000000
  60         0.00000000
  61         0.00000000
Sym=    26a  
Ene=     3.6998
Spin= Alpha
Occup=    0.00000
   1         0.00000000
   2         0.00000000
   3         0.00000000
   4         0.00000000
   5         0.00000000
   6         0.00000000
   7         0.00000000
   8         0.00000000
   9         0.00000000
  10         0.00000000
  11        -0.00000000
  12        -0.00000000
  13        -0.00000000
  14         0.00000000
  15        -0.00131252
  16         0.00000000
  17         0.00000000
  18         0.01186021
  19         0.00000000
  20        -0.00000000
  21        -0.05879218
  22         0.00000000
  23         0.00000000
  24         0.22666064
  25         0.00000000
  26        -0.00000000
  27        -0.80632728
  28         0.00000000
  29         0.00000000
  30         2.90007643
  31         0.00000000
  32        -0.00000000
  33        -2.83517965
  34         0.00000000
  35         0.00000000
  36         1.40373043
  37         0.00000000
  38        -0.00000000
  39        -0.36341970
  40         0.00000000
  41         0.00000000
  42        -0.00000000
  43         0.00000000
  44         0.00000000
  45         0.00000000
  46        -0.00000000
  47        -0.00000000
  48        -0.00000000
  49        -0.00000000
  50        -0.00000000
  51        -0.00000000
  52        -0.00000000
  53         0.00000000
  54         0.00000000
  55         0.00000000
  56         0.00000000
  57        -0.00000000
  58        -0.00000000
  59         0.00000000
  60        -0.00000000
  61         0.00000000
Sym=    27a  
Ene=     4.0242
Spin= Alpha
Occup=    0.00000
   1        -0.00000313
   2         0.00003821
   3        -0.00027260
   4         0.00147718
   5        -0.00648742
   6         0.02696909
   7        -0.08844424
   8         0.34694281
   9        -0.82856356
  10         3.10915232
  11        -6.31849566
  12         5.86145805
  13        -2.70377769
  14         0.67166008
  15        -0.00000000
  16        -0.00000000
  17         0.00000000
  18         0.00000000
  19         0.00000000
  20        -0.00000000
  21        -0.00000000
  22        -0.00000000
  23         0.00000000
  24         0.00000000
  25         0.00000000
  26        -0.00000000
  27         0.00000000
  28        -0.00000000
  29         0.00000000
  30        -0.00000000
  31         0.00000000
  32        -0.00000000
  33         0.00000000
  34         0.00000000
  35         0.00000000
  36        -0.00000000
  37        -0.00000000
  38        -0.00000000
  39        -0.00000000
  40         0.00000000
  41         0.00000000
  42        -0.00000000
  43         0.00000000
  44        -0.00000000
  45        -0.00000000
  46         0.00000000
  47         0.00000000
  48        -0.00000000
  49         0.00000000
  50         0.00000000
  51        -0.00000000
  52        -0.00000000
  53         0.00000000
  54        -0.00000000
  55        -0.00000000
  56         0.00000000
  57         0.00000000
  58        -0.00000000
  59         0.00000000
  60         0.00000000
  61        -0.00000000
Sym=    28a  
Ene=     4.7411
Spin= Alpha
Occup=    0.00000
   1        -0.00000000
   2        -0.00000000
   3        -0.00000000
   4        -0.00000000
   5        -0.00000000
   6        -0.00000000
   7        -0.00000000
   8        -0.00000000
   9        -0.00000000
  10        -0.00000000
  11         0.00000000
  12         0.00000000
  13         0.00000000
  14        -0.00000000
  15         0.00000000
  16         0.00000000
  17         0.00365297
  18         0.00000000
  19         0.00000000
  20        -0.03355060
  21        -0.00000000
  22        -0.00000000
  23         0.17223192
  24         0.00000000
  25         0.00000000
  26        -0.71464487
  27        -0.00000000
  28        -0.00000000
  29         2.86764427
  30        -0.00000000
  31         0.00000000
  32        -3.05078464
  33        -0.00000000
  34         0.00000000
  35         1.90124666
  36         0.00000000
  37         0.00000000
  38        -0.82579696
  39        -0.00000000
  40        -0.00000000
  41         0.21096474
  42         0.00000000
  43         0.00000000
  44         0.00000000
  45         0.00000000
  46        -0.00000000
  47         0.00000000
  48         0.00000000
  49        -0.00000000
  50        -0.00000000
  51         0.00000000
  52         0.00000000
  53        -0.00000000
  54         0.00000000
  55         0.00000000
  56         0.00000000
  57         0.00000000
  58         0.00000000
  59        -0.00000000
  60        -0.00000000
  61        -0.00000000
Sym=    29a  
Ene=     4.7411
Spin= Alpha
Occup=    0.00000
   1        -0.00000000
   2        -0.00000000
   3        -0.00000000
   4        -0.00000000
   5        -0.00000000
   6        -0.00000000
   7        -0.00000000
   8        -0.00000000
   9        -0.00000000
  10        -0.00000000
  11        -0.00000000
  12        -0.00000000
  13        -0.00000000
  14         0.00000000
  15         0.00000000
  16         0.00365297
  17         0.00000000
  18        -0.00000000
  19        -0.03355060
  20        -0.00000000
  21         0.00000000
  22         0.17223192
  23         0.00000000
  24        -0.00000000
  25        -0.71464487
  26        -0.00000000
  27        -0.00000000
  28         2.86764427
  29         0.00000000
  30         0.00000000
  31        -3.05078464
  32        -0.00000000
  33         0.00000000
  34         1.90124666
  35         0.00000000
  36        -0.00000000
  37        -0.82579696
  38        -0.00000000
  39         0.00000000
  40         0.21096474
  41         0.00000000
  42         0.00000000
  43        -0.00000000
  44        -0.00000000
  45        -0.00000000
  46         0.00000000
  47         0.00000000
  48         0.00000000
  49         0.00000000
  50         0.00000000
  51        -0.00000000
  52        -0.00000000
  53        -0.00000000
  54        -0.00000000
  55        -0.00000000
  56        -0.00000000
  57         0.00000000
  58         0.00000000
  59         0.00000000
  60         0.00000000
  61         0.00000000
Sym=    30a  
Ene=     4.7411
Spin= Alpha
Occup=    0.00000
   1        -0.00000000
   2        -0.00000000
   3        -0.00000000
   4        -0.00000000
   5        -0.00000000
   6        -0.00000000
   7        -0.00000000
   8        -0.00000000
   9        -0.00000000
  10         0.00000000
  11        -0.00000000
  12        -0.00000000
  13        -0.00000000
  14         0.00000000
  15         0.00365297
  16        -0.00000000
  17         0.00000000
  18        -0.03355060
  19        -0.00000000
  20        -0.00000000
  21         0.17223192
  22        -0.00000000
  23         0.00000000
  24        -0.71464487
  25        -0.00000000
  26        -0.00000000
  27         2.86764427
  28        -0.00000000
  29         0.00000000
  30        -3.05078464
  31        -0.00000000
  32        -0.00000000
  33         1.90124666
  34        -0.00000000
  35         0.00000000
  36        -0.82579696
  37        -0.00000000
  38        -0.00000000
  39         0.21096474
  40        -0.00000000
  41         0.00000000
  42        -0.00000000
  43        -0.00000000
  44        -0.00000000
  45        -0.00000000
  46         0.00000000
  47        -0.00000000
  48         0.00000000
  49         0.00000000
  50         0.00000000
  51        -0.00000000
  52        -0.00000000
  53        -0.00000000
  54        -0.00000000
  55        -0.00000000
  56        -0.00000000
  57        -0.00000000
  58        -0.00000000
  59         0.00000000
  60         0.00000000
  61         0.00000000
Sym=    31a  
Ene=     5.1102
Spin= Alpha
Occup=    0.00000
   1         0.00000000
   2         0.00000000
   3         0.00000000
   4         0.00000000
   5        -0.00000000
   6        -0.00000000
   7        -0.00000000
   8         0.00000000
   9        -0.00000000
  10         0.00000000
  11        -0.00000000
  12         0.00000000
  13        -0.00000000
  14         0.00000000
  15        -0.00000000
  16         0.00000000
  17        -0.00000000
  18         0.00000000
  19         0.00000000
  20         0.00000000
  21        -0.00000000
  22         0.00000000
  23         0.00000000
  24         0.00000000
  25         0.00000000
  26        -0.00000000
  27        -0.00000000
  28         0.00000000
  29         0.00000000
  30        -0.00000000
  31         0.00000000
  32        -0.00000000
  33        -0.00000000
  34         0.00000000
  35         0.00000000
  36         0.00000000
  37         0.00000000
  38        -0.00000000
  39        -0.00000000
  40         0.00000000
  41         0.00000000
  42        -0.02008742
  43         0.00004012
  44         0.00001948
  45        -0.21091514
  46        -0.00000001
  47         0.14455340
  48        -0.00028871
  49        -0.00014015
  50         1.51779116
  51         0.00000004
  52        -0.09525113
  53         0.00019024
  54         0.00009235
  55        -1.00012399
  56        -0.00000002
  57         0.03226340
  58        -0.00006444
  59        -0.00003128
  60         0.33876137
  61         0.00000001
Sym=    32a  
Ene=     5.1102
Spin= Alpha
Occup=    0.00000
   1        -0.00000000
   2        -0.00000000
   3        -0.00000000
   4        -0.00000000
   5        -0.00000000
   6        -0.00000000
   7        -0.00000000
   8        -0.00000000
   9        -0.00000000
  10         0.00000000
  11        -0.00000000
  12         0.00000000
  13        -0.00000000
  14         0.00000000
  15         0.00000000
  16        -0.00000000
  17         0.00000000
  18        -0.00000000
  19         0.00000000
  20        -0.00000000
  21         0.00000000
  22        -0.00000000
  23         0.00000000
  24        -0.00000000
  25         0.00000000
  26        -0.00000000
  27         0.00000000
  28        -0.00000000
  29         0.00000000
  30        -0.00000000
  31         0.00000000
  32        -0.00000000
  33         0.00000000
  34        -0.00000000
  35         0.00000000
  36        -0.00000000
  37         0.00000000
  38        -0.00000000
  39         0.00000000
  40        -0.00000000
  41         0.00000000
  42        -0.01300658
  43        -0.21027172
  44        -0.02244786
  45         0.00119667
  46        -0.00000000
  47         0.09359816
  48         1.51316092
  49         0.16153965
  50        -0.00861148
  51         0.00000000
  52        -0.06167500
  53        -0.99707297
  54        -0.10644395
  55         0.00567439
  56        -0.00000000
  57         0.02089052
  58         0.33772793
  59         0.03605463
  60        -0.00192203
  61         0.00000000
Sym=    33a  
Ene=     5.1102
Spin= Alpha
Occup=    0.00000
   1        -0.00000000
   2         0.00000000
   3        -0.00000000
   4         0.00000000
   5        -0.00000000
   6         0.00000000
   7        -0.00000000
   8         0.00000000
   9        -0.00000000
  10         0.00000000
  11        -0.00000000
  12         0.00000000
  13        -0.00000000
  14         0.00000000
  15         0.00000000
  16         0.00000000
  17        -0.00000000
  18        -0.00000000
  19        -0.00000000
  20         0.00000000
  21         0.00000000
  22         0.00000000
  23        -0.00000000
  24        -0.00000000
  25        -0.00000000
  26         0.00000000
  27         0.00000000
  28         0.00000000
  29        -0.00000000
  30         0.00000000
  31        -0.00000000
  32         0.00000000
  33         0.00000000
  34         0.00000000
  35        -0.00000000
  36        -0.00000000
  37        -0.00000000
  38         0.00000000
  39         0.00000000
  40         0.00000000
  41        -0.00000000
  42         0.00000000
  43        -0.00000000
  44        -0.00000000
  45         0.00000001
  46        -0.21186955
  47        -0.00000000
  48         0.00000000
  49         0.00000000
  50        -0.00000004
  51         1.52465924
  52         0.00000000
  53        -0.00000000
  54        -0.00000000
  55         0.00000002
  56        -1.00464960
  57        -0.00000000
  58         0.00000000
  59         0.00000000
  60        -0.00000001
  61         0.34029428
Sym=    34a  
Ene=     5.1102
Spin= Alpha
Occup=    0.00000
   1        -0.00000000
   2        -0.00000000
   3        -0.00000000
   4        -0.00000000
   5        -0.00000000
   6         0.00000000
   7        -0.00000000
   8         0.00000000
   9        -0.00000000
  10         0.00000000
  11        -0.00000000
  12         0.00000000
  13         0.00000000
  14         0.00000000
  15        -0.00000000
  16         0.00000000
  17        -0.00000000
  18         0.00000000
  19         0.00000000
  20        -0.00000000
  21        -0.00000000
  22         0.00000000
  23         0.00000000
  24         0.00000000
  25         0.00000000
  26        -0.00000000
  27        -0.00000000
  28         0.00000000
  29         0.00000000
  30        -0.00000000
  31         0.00000000
  32        -0.00000000
  33        -0.00000000
  34         0.00000000
  35         0.00000000
  36         0.00000000
  37         0.00000000
  38         0.00000000
  39        -0.00000000
  40         0.00000000
  41        -0.00000000
  42        -0.00111435
  43         0.02255899
  44        -0.21066216
  45         0.00009097
  46         0.00000000
  47         0.00801911
  48        -0.16233936
  49         1.51597064
  50        -0.00065463
  51        -0.00000000
  52        -0.00528406
  53         0.10697090
  54        -0.99892439
  55         0.00043136
  56         0.00000000
  57         0.00178981
  58        -0.03623312
  59         0.33835504
  60        -0.00014611
  61        -0.00000000
Sym=    35a  
Ene=     5.1102
Spin= Alpha
Occup=    0.00000
   1        -0.00000000
   2         0.00000000
   3        -0.00000000
   4         0.00000000
   5        -0.00000000
   6         0.00000000
   7        -0.00000000
   8         0.00000000
   9        -0.00000000
  10         0.00000000
  11        -0.00000000
  12         0.00000000
  13        -0.00000000
  14         0.00000000
  15        -0.00000000
  16        -0.00000000
  17        -0.00000000
  18         0.00000000
  19         0.00000000
  20         0.00000000
  21        -0.00000000
  22        -0.00000000
  23        -0.00000000
  24         0.00000000
  25         0.00000000
  26         0.00000000
  27        -0.00000000
  28        -0.00000000
  29         0.00000000
  30        -0.00000000
  31         0.00000000
  32         0.00000000
  33         0.00000000
  34        -0.00000000
  35         0.00000000
  36         0.00000000
  37         0.00000000
  38        -0.00000000
  39        -0.00000000
  40         0.00000000
  41         0.00000000
  42        -0.21051078
  43         0.01286856
  44         0.00250025
  45         0.02005158
  46        -0.00000000
  47         1.51488124
  48        -0.09260497
  49        -0.01799236
  50        -0.14429554
  51         0.00000000
  52        -0.99820655
  53         0.06102055
  54         0.01185577
  55         0.09508122
  56        -0.00000000
  57         0.33811189
  58        -0.02066884
  59        -0.00401578
  60        -0.03220585
  61         0.00000000
Sym=    36a  
Ene=     6.3394
Spin= Alpha
Occup=    0.00000
   1        -0.00001031
   2         0.00012586
   3        -0.00090256
   4         0.00483543
   5        -0.02210243
   6         0.08553975
   7        -0.34262742
   8         1.06114001
   9        -4.16810365
  10         7.45239628
  11        -6.28820811
  12         3.36545877
  13        -1.47389705
  14         0.34556749
  15         0.00000000
  16        -0.00000000
  17         0.00000000
  18        -0.00000000
  19        -0.00000000
  20        -0.00000000
  21         0.00000000
  22        -0.00000000
  23         0.00000000
  24        -0.00000000
  25        -0.00000000
  26        -0.00000000
  27         0.00000000
  28         0.00000000
  29         0.00000000
  30        -0.00000000
  31        -0.00000000
  32        -0.00000000
  33         0.00000000
  34        -0.00000000
  35         0.00000000
  36        -0.00000000
  37        -0.00000000
  38        -0.00000000
  39         0.00000000
  40        -0.00000000
  41         0.00000000
  42         0.00000000
  43         0.00000000
  44        -0.00000000
  45        -0.00000000
  46         0.00000000
  47        -0.00000000
  48        -0.00000000
  49         0.00000000
  50         0.00000000
  51        -0.00000000
  52         0.00000000
  53         0.00000000
  54        -0.00000000
  55        -0.00000000
  56         0.00000000
  57        -0.00000000
  58        -0.00000000
  59         0.00000000
  60         0.00000000
  61         0.00000000
Sym=    37a  
Ene=     7.3443
Spin= Alpha
Occup=    0.00000
   1         0.00000000
   2         0.00000000
   3         0.00000000
   4         0.00000000
   5         0.00000000
   6         0.00000000
   7         0.00000000
   8         0.00000000
   9         0.00000000
  10         0.00000000
  11        -0.00000000
  12        -0.00000000
  13        -0.00000000
  14         0.00000000
  15        -0.00000000
  16        -0.00000000
  17        -0.01060309
  18        -0.00000000
  19        -0.00000000
  20         0.10127846
  21         0.00000000
  22         0.00000000
  23        -0.56339860
  24        -0.00000000
  25        -0.00000000
  26         2.67993504
  27         0.00000000
  28         0.00000000
  29        -2.96408760
  30         0.00000000
  31        -0.00000000
  32         2.01107460
  33         0.00000000
  34        -0.00000000
  35        -1.10320054
  36        -0.00000000
  37        -0.00000000
  38         0.47313604
  39         0.00000000
  40         0.00000000
  41        -0.12253614
  42        -0.00000000
  43        -0.00000000
  44        -0.00000000
  45        -0.00000000
  46         0.00000000
  47        -0.00000000
  48         0.00000000
  49         0.00000000
  50         0.00000000
  51        -0.00000000
  52        -0.00000000
  53         0.00000000
  54        -0.00000000
  55        -0.00000000
  56        -0.00000000
  57        -0.00000000
  58        -0.00000000
  59         0.00000000
  60         0.00000000
  61         0.00000000
Sym=    38a  
Ene=     7.3443
Spin= Alpha
Occup=    0.00000
   1        -0.00000000
   2        -0.00000000
   3        -0.00000000
   4        -0.00000000
   5        -0.00000000
   6        -0.00000000
   7        -0.00000000
   8        -0.00000000
   9        -0.00000000
  10        -0.00000000
  11        -0.00000000
  12        -0.00000000
  13        -0.00000000
  14         0.00000000
  15         0.00000000
  16        -0.01060309
  17         0.00000000
  18        -0.00000000
  19         0.10127846
  20        -0.00000000
  21         0.00000000
  22        -0.56339860
  23         0.00000000
  24        -0.00000000
  25         2.67993504
  26        -0.00000000
  27         0.00000000
  28        -2.96408760
  29         0.00000000
  30        -0.00000000
  31         2.01107460
  32        -0.00000000
  33         0.00000000
  34        -1.10320054
  35         0.00000000
  36        -0.00000000
  37         0.47313604
  38        -0.00000000
  39         0.00000000
  40        -0.12253614
  41         0.00000000
  42         0.00000000
  43        -0.00000000
  44        -0.00000000
  45        -0.00000000
  46         0.00000000
  47         0.00000000
  48         0.00000000
  49         0.00000000
  50         0.00000000
  51        -0.00000000
  52        -0.00000000
  53        -0.00000000
  54        -0.00000000
  55        -0.00000000
  56        -0.00000000
  57         0.00000000
  58         0.00000000
  59         0.00000000
  60         0.00000000
  61         0.00000000
Sym=    39a  
Ene=     7.3443
Spin= Alpha
Occup=    0.00000
   1        -0.00000000
   2        -0.00000000
   3        -0.00000000
   4        -0.00000000
   5        -0.00000000
   6        -0.00000000
   7        -0.00000000
   8        -0.00000000
   9        -0.00000000
  10        -0.00000000
  11        -0.00000000
  12        -0.00000000
  13        -0.00000000
  14         0.00000000
  15        -0.01060309
  16        -0.00000000
  17        -0.00000000
  18         0.10127846
  19        -0.00000000
  20         0.00000000
  21        -0.56339860
  22        -0.00000000
  23        -0.00000000
  24         2.67993504
  25        -0.00000000
  26         0.00000000
  27        -2.96408760
  28        -0.00000000
  29        -0.00000000
  30         2.01107460
  31        -0.00000000
  32         0.00000000
  33        -1.10320054
  34        -0.00000000
  35        -0.00000000
  36         0.47313604
  37        -0.00000000
  38         0.00000000
  39        -0.12253614
  40        -0.00000000
  41        -0.00000000
  42         0.00000000
  43        -0.00000000
  44        -0.00000000
  45        -0.00000000
  46         0.00000000
  47         0.00000000
  48         0.00000000
  49         0.00000000
  50         0.00000000
  51        -0.00000000
  52         0.00000000
  53        -0.00000000
  54        -0.00000000
  55        -0.00000000
  56        -0.00000000
  57         0.00000000
  58         0.00000000
  59        -0.00000000
  60         0.00000000
  61         0.00000000
Sym=    40a  
Ene=     9.3895
Spin= Alpha
Occup=    0.00000
   1         0.00000000
   2        -0.00000000
   3         0.00000000
   4        -0.00000000
   5         0.00000000
   6        -0.00000000
   7         0.00000000
   8        -0.00000000
   9         0.00000000
  10        -0.00000000
  11         0.00000000
  12        -0.00000000
  13         0.00000000
  14        -0.00000000
  15         0.00000000
  16        -0.00000000
  17         0.00000000
  18        -0.00000000
  19        -0.00000000
  20        -0.00000000
  21         0.00000000
  22        -0.00000000
  23         0.00000000
  24        -0.00000000
  25         0.00000000
  26        -0.00000000
  27         0.00000000
  28        -0.00000000
  29         0.00000000
  30        -0.00000000
  31         0.00000000
  32        -0.00000000
  33         0.00000000
  34        -0.00000000
  35         0.00000000
  36        -0.00000000
  37         0.00000000
  38        -0.00000000
  39         0.00000000
  40        -0.00000000
  41         0.00000000
  42         1.34982698
  43         0.00299761
  44        -0.00990133
  45        -0.25945859
  46        -0.00000000
  47        -1.01133572
  48        -0.00224591
  49         0.00741841
  50         0.19439509
  51         0.00000000
  52         0.47051597
  53         0.00104489
  54        -0.00345136
  55        -0.09044078
  56        -0.00000000
  57        -0.15478553
  58        -0.00034374
  59         0.00113539
  60         0.02975228
  61         0.00000000
Sym=    41a  
Ene=     9.3895
Spin= Alpha
Occup=    0.00000
   1         0.00000000
   2        -0.00000000
   3         0.00000000
   4        -0.00000000
   5         0.00000000
   6        -0.00000000
   7         0.00000000
   8        -0.00000000
   9         0.00000000
  10        -0.00000000
  11         0.00000000
  12        -0.00000000
  13         0.00000000
  14        -0.00000000
  15         0.00000000
  16        -0.00000000
  17         0.00000000
  18        -0.00000000
  19        -0.00000000
  20        -0.00000000
  21         0.00000000
  22        -0.00000000
  23         0.00000000
  24        -0.00000000
  25        -0.00000000
  26        -0.00000000
  27         0.00000000
  28         0.00000000
  29         0.00000000
  30        -0.00000000
  31        -0.00000000
  32        -0.00000000
  33         0.00000000
  34        -0.00000000
  35         0.00000000
  36        -0.00000000
  37         0.00000000
  38        -0.00000000
  39         0.00000000
  40        -0.00000000
  41         0.00000000
  42        -0.00787143
  43         1.15292516
  44        -0.74843798
  45         0.00093076
  46         0.00000000
  47         0.00589754
  48        -0.86381027
  49         0.56075488
  50        -0.00069736
  51        -0.00000000
  52        -0.00274378
  53         0.40188091
  54        -0.26088678
  55         0.00032444
  56         0.00000000
  57         0.00090262
  58        -0.13220667
  59         0.08582386
  60        -0.00010673
  61        -0.00000000
Sym=    42a  
Ene=     9.3895
Spin= Alpha
Occup=    0.00000
   1         0.00000000
   2        -0.00000000
   3         0.00000000
   4        -0.00000000
   5         0.00000000
   6        -0.00000000
   7         0.00000000
   8        -0.00000000
   9         0.00000000
  10        -0.00000000
  11         0.00000000
  12         0.00000000
  13         0.00000000
  14        -0.00000000
  15        -0.00000000
  16         0.00000000
  17         0.00000000
  18         0.00000000
  19         0.00000000
  20        -0.00000000
  21        -0.00000000
  22         0.00000000
  23         0.00000000
  24         0.00000000
  25         0.00000000
  26        -0.00000000
  27         0.00000000
  28         0.00000000
  29         0.00000000
  30        -0.00000000
  31         0.00000000
  32        -0.00000000
  33        -0.00000000
  34         0.00000000
  35         0.00000000
  36         0.00000000
  37         0.00000000
  38        -0.00000000
  39        -0.00000000
  40         0.00000000
  41         0.00000000
  42         0.00000026
  43         0.00000000
  44        -0.00000000
  45         0.00000138
  46         1.37457581
  47        -0.00000020
  48        -0.00000000
  49         0.00000000
  50        -0.00000103
  51        -1.02987838
  52         0.00000009
  53         0.00000000
  54        -0.00000000
  55         0.00000048
  56         0.47914279
  57        -0.00000003
  58        -0.00000000
  59         0.00000000
  60        -0.00000016
  61        -0.15762349
Sym=    43a  
Ene=     9.3895
Spin= Alpha
Occup=    0.00000
   1        -0.00000000
   2         0.00000000
   3        -0.00000000
   4         0.00000000
   5        -0.00000000
   6         0.00000000
   7        -0.00000000
   8         0.00000000
   9        -0.00000000
  10         0.00000000
  11        -0.00000000
  12         0.00000000
  13        -0.00000000
  14        -0.00000000
  15         0.00000000
  16        -0.00000000
  17         0.00000000
  18        -0.00000000
  19        -0.00000000
  20         0.00000000
  21         0.00000000
  22        -0.00000000
  23        -0.00000000
  24        -0.00000000
  25         0.00000000
  26         0.00000000
  27        -0.00000000
  28        -0.00000000
  29        -0.00000000
  30         0.00000000
  31         0.00000000
  32         0.00000000
  33         0.00000000
  34        -0.00000000
  35        -0.00000000
  36        -0.00000000
  37        -0.00000000
  38        -0.00000000
  39         0.00000000
  40        -0.00000000
  41         0.00000000
  42         0.00663894
  43         0.74847391
  44         1.15290969
  45        -0.00081051
  46        -0.00000000
  47        -0.00497412
  48        -0.56078180
  49        -0.86379867
  50         0.00060726
  51         0.00000000
  52         0.00231417
  53         0.26089931
  54         0.40187552
  55        -0.00028252
  56        -0.00000000
  57        -0.00076129
  58        -0.08582798
  59        -0.13220489
  60         0.00009294
  61         0.00000000
Sym=    44a  
Ene=     9.3895
Spin= Alpha
Occup=    0.00000
   1        -0.00000000
   2         0.00000000
   3        -0.00000000
   4         0.00000000
   5        -0.00000000
   6         0.00000000
   7        -0.00000000
   8         0.00000000
   9        -0.00000000
  10        -0.00000000
  11         0.00000000
  12        -0.00000000
  13         0.00000000
  14        -0.00000000
  15         0.00000000
  16         0.00000000
  17        -0.00000000
  18        -0.00000000
  19        -0.00000000
  20         0.00000000
  21         0.00000000
  22        -0.00000000
  23        -0.00000000
  24        -0.00000000
  25         0.00000000
  26         0.00000000
  27        -0.00000000
  28        -0.00000000
  29        -0.00000000
  30         0.00000000
  31         0.00000000
  32         0.00000000
  33         0.00000000
  34        -0.00000000
  35        -0.00000000
  36        -0.00000000
  37        -0.00000000
  38         0.00000000
  39         0.00000000
  40        -0.00000000
  41        -0.00000000
  42         0.25946049
  43         0.00023062
  44        -0.00069483
  45         1.34986606
  46        -0.00000140
  47        -0.19439652
  48        -0.00017279
  49         0.00052059
  50        -1.01136500
  51         0.00000105
  52         0.09044145
  53         0.00008039
  54        -0.00024220
  55         0.47052959
  56        -0.00000049
  57        -0.02975250
  58        -0.00002645
  59         0.00007968
  60        -0.15479001
  61         0.00000016
Sym=    45a  
Ene=    12.9420
Spin= Alpha
Occup=    0.00000
   1        -0.00003187
   2         0.00038954
   3        -0.00278905
   4         0.01515556
   5        -0.06849406
   6         0.28965001
   7        -1.09534791
   8         4.64842347
   9        -7.42854918
  10         6.06526342
  11        -3.65683800
  12         1.89970812
  13        -0.75160729
  14         0.18529815
  15        -0.00000000
  16         0.00000000
  17        -0.00000000
  18         0.00000000
  19        -0.00000000
  20         0.00000000
  21        -0.00000000
  22         0.00000000
  23        -0.00000000
  24         0.00000000
  25        -0.00000000
  26         0.00000000
  27        -0.00000000
  28         0.00000000
  29        -0.00000000
  30        -0.00000000
  31        -0.00000000
  32         0.00000000
  33        -0.00000000
  34         0.00000000
  35        -0.00000000
  36         0.00000000
  37        -0.00000000
  38         0.00000000
  39        -0.00000000
  40         0.00000000
  41        -0.00000000
  42         0.00000000
  43         0.00000000
  44        -0.00000000
  45        -0.00000000
  46         0.00000000
  47        -0.00000000
  48         0.00000000
  49         0.00000000
  50         0.00000000
  51        -0.00000000
  52         0.00000000
  53        -0.00000000
  54        -0.00000000
  55        -0.00000000
  56        -0.00000000
  57        -0.00000000
  58         0.00000000
  59         0.00000000
  60         0.00000000
  61        -0.00000000
Sym=    46a  
Ene=    14.1670
Spin= Alpha
Occup=    0.00000
   1        -0.00000000
   2        -0.00000000
   3        -0.00000000
   4        -0.00000000
   5        -0.00000000
   6        -0.00000000
   7        -0.00000000
   8        -0.00000000
   9        -0.00000000
  10        -0.00000000
  11         0.00000000
  12         0.00000000
  13         0.00000000
  14        -0.00000000
  15        -0.00000000
  16         0.00000000
  17         0.03357444
  18         0.00000000
  19         0.00000000
  20        -0.35409953
  21        -0.00000000
  22        -0.00000000
  23         2.34081123
  24         0.00000000
  25         0.00000000
  26        -2.65216097
  27        -0.00000000
  28        -0.00000000
  29         1.88060307
  30        -0.00000000
  31         0.00000000
  32        -1.13288768
  33        -0.00000000
  34         0.00000000
  35         0.61595319
  36         0.00000000
  37         0.00000000
  38        -0.26753668
  39        -0.00000000
  40        -0.00000000
  41         0.07014175
  42         0.00000000
  43         0.00000000
  44         0.00000000
  45         0.00000000
  46        -0.00000000
  47         0.00000000
  48        -0.00000000
  49        -0.00000000
  50        -0.00000000
  51         0.00000000
  52         0.00000000
  53        -0.00000000
  54         0.00000000
  55         0.00000000
  56         0.00000000
  57         0.00000000
  58         0.00000000
  59        -0.00000000
  60        -0.00000000
  61        -0.00000000
Sym=    47a  
Ene=    14.1670
Spin= Alpha
Occup=    0.00000
   1        -0.00000000
   2        -0.00000000
   3        -0.00000000
   4        -0.00000000
   5        -0.00000000
   6        -0.00000000
   7        -0.00000000
   8        -0.00000000
   9        -0.00000000
  10        -0.00000000
  11        -0.00000000
  12        -0.00000000
  13        -0.00000000
  14         0.00000000
  15         0.00000000
  16         0.03357444
  17         0.00000000
  18        -0.00000000
  19        -0.35409953
  20        -0.00000000
  21         0.00000000
  22         2.34081123
  23         0.00000000
  24        -0.00000000
  25        -2.65216097
  26        -0.00000000
  27         0.00000000
  28         1.88060307
  29         0.00000000
  30         0.00000000
  31        -1.13288768
  32        -0.00000000
  33         0.00000000
  34         0.61595319
  35         0.00000000
  36        -0.00000000
  37        -0.26753668
  38        -0.00000000
  39         0.00000000
  40         0.07014175
  41         0.00000000
  42         0.00000000
  43        -0.00000000
  44        -0.00000000
  45        -0.00000000
  46         0.00000000
  47         0.00000000
  48         0.00000000
  49         0.00000000
  50         0.00000000
  51        -0.00000000
  52        -0.00000000
  53        -0.00000000
  54        -0.00000000
  55        -0.00000000
  56        -0.00000000
  57         0.00000000
  58         0.00000000
  59         0.00000000
  60         0.00000000
  61         0.00000000
Sym=    48a  
Ene=    14.1670
Spin= Alpha
Occup=    0.00000
   1        -0.00000000
   2        -0.00000000
   3        -0.00000000
   4        -0.00000000
   5        -0.00000000
   6        -0.00000000
   7        -0.00000000
   8        -0.00000000
   9        -0.00000000
  10        -0.00000000
  11         0.00000000
  12         0.00000000
  13         0.00000000
  14        -0.00000000
  15         0.03357444
  16         0.00000000
  17        -0.00000000
  18        -0.35409953
  19         0.00000000
  20         0.00000000
  21         2.34081123
  22         0.00000000
  23        -0.00000000
  24        -2.65216097
  25         0.00000000
  26         0.00000000
  27         1.88060307
  28         0.00000000
  29        -0.00000000
  30        -1.13288768
  31         0.00000000
  32         0.00000000
  33         0.61595319
  34         0.00000000
  35        -0.00000000
  36        -0.26753668
  37         0.00000000
  38         0.00000000
  39         0.07014175
  40         0.00000000
  41        -0.00000000
  42         0.00000000
  43         0.00000000
  44         0.00000000
  45         0.00000000
  46        -0.00000000
  47         0.00000000
  48        -0.00000000
  49        -0.00000000
  50        -0.00000000
  51         0.00000000
  52         0.00000000
  53        -0.00000000
  54         0.00000000
  55         0.00000000
  56         0.00000000
  57         0.00000000
  58         0.00000000
  59        -0.00000000
  60        -0.00000000
  61        -0.00000000
Sym=    49a  
Ene=    30.4940
Spin= Alpha
Occup=    0.00000
   1         0.00009358
   2        -0.00114456
   3         0.00824593
   4        -0.04511546
   5         0.21352338
   6        -0.93472342
   7         4.27849591
   8        -6.47697774
   9         5.34973481
  10        -3.53757100
  11         2.02243084
  12        -0.98599514
  13         0.43233203
  14        -0.10351514
  15         0.00000000
  16        -0.00000000
  17         0.00000000
  18        -0.00000000
  19        -0.00000000
  20        -0.00000000
  21         0.00000000
  22         0.00000000
  23         0.00000000
  24        -0.00000000
  25        -0.00000000
  26        -0.00000000
  27         0.00000000
  28         0.00000000
  29         0.00000000
  30        -0.00000000
  31        -0.00000000
  32        -0.00000000
  33         0.00000000
  34         0.00000000
  35         0.00000000
  36        -0.00000000
  37        -0.00000000
  38        -0.00000000
  39         0.00000000
  40        -0.00000000
  41         0.00000000
  42        -0.00000000
  43        -0.00000000
  44         0.00000000
  45         0.00000000
  46         0.00000000
  47         0.00000000
  48         0.00000000
  49        -0.00000000
  50        -0.00000000
  51         0.00000000
  52        -0.00000000
  53        -0.00000000
  54         0.00000000
  55        -0.00000000
  56        -0.00000000
  57         0.00000000
  58         0.00000000
  59        -0.00000000
  60         0.00000000
  61        -0.00000000
Sym=    50a  
Ene=    34.0240
Spin= Alpha
Occup=    0.00000
   1         0.00000000
   2         0.00000000
   3         0.00000000
   4         0.00000000
   5         0.00000000
   6         0.00000000
   7         0.00000000
   8         0.00000000
   9         0.00000000
  10         0.00000000
  11        -0.00000000
  12        -0.00000000
  13        -0.00000000
  14         0.00000000
  15         0.00000000
  16        -0.00000000
  17        -0.13266498
  18        -0.00000000
  19        -0.00000000
  20         1.84676789
  21         0.00000000
  22         0.00000000
  23        -2.08590579
  24        -0.00000000
  25        -0.00000000
  26         1.54451447
  27         0.00000000
  28         0.00000000
  29        -0.99148580
  30         0.00000000
  31        -0.00000000
  32         0.59665165
  33         0.00000000
  34        -0.00000000
  35        -0.32928619
  36        -0.00000000
  37        -0.00000000
  38         0.14465487
  39         0.00000000
  40         0.00000000
  41        -0.03819989
  42        -0.00000000
  43        -0.00000000
  44        -0.00000000
  45        -0.00000000
  46         0.00000000
  47        -0.00000000
  48         0.00000000
  49         0.00000000
  50         0.00000000
  51        -0.00000000
  52        -0.00000000
  53         0.00000000
  54        -0.00000000
  55        -0.00000000
  56        -0.00000000
  57        -0.00000000
  58        -0.00000000
  59         0.00000000
  60         0.00000000
  61         0.00000000
Sym=    51a  
Ene=    34.0240
Spin= Alpha
Occup=    0.00000
   1        -0.00000000
   2        -0.00000000
   3        -0.00000000
   4        -0.00000000
   5        -0.00000000
   6        -0.00000000
   7        -0.00000000
   8        -0.00000000
   9        -0.00000000
  10        -0.00000000
  11        -0.00000000
  12        -0.00000000
  13        -0.00000000
  14         0.00000000
  15         0.00000000
  16        -0.13266498
  17         0.00000000
  18        -0.00000000
  19         1.84676789
  20        -0.00000000
  21         0.00000000
  22        -2.08590579
  23         0.00000000
  24        -0.00000000
  25         1.54451447
  26        -0.00000000
  27         0.00000000
  28        -0.99148580
  29         0.00000000
  30        -0.00000000
  31         0.59665165
  32        -0.00000000
  33         0.00000000
  34        -0.32928619
  35         0.00000000
  36        -0.00000000
  37         0.14465487
  38        -0.00000000
  39         0.00000000
  40        -0.03819989
  41         0.00000000
  42         0.00000000
  43        -0.00000000
  44        -0.00000000
  45        -0.00000000
  46         0.00000000
  47         0.00000000
  48         0.00000000
  49         0.00000000
  50         0.00000000
  51        -0.00000000
  52        -0.00000000
  53        -0.00000000
  54        -0.00000000
  55        -0.00000000
  56        -0.00000000
  57         0.00000000
  58         0.00000000
  59         0.00000000
  60         0.00000000
  61         0.00000000
Sym=    52a  
Ene=    34.0240
Spin= Alpha
Occup=    0.00000
   1        -0.00000000
   2        -0.00000000
   3        -0.00000000
   4        -0.00000000
   5        -0.00000000
   6        -0.00000000
   7        -0.00000000
   8        -0.00000000
   9        -0.00000000
  10        -0.00000000
  11        -0.00000000
  12        -0.00000000
  13        -0.00000000
  14         0.00000000
  15        -0.13266498
  16        -0.00000000
  17         0.00000000
  18         1.84676789
  19        -0.00000000
  20        -0.00000000
  21        -2.08590579
  22        -0.00000000
  23         0.00000000
  24         1.54451447
  25        -0.00000000
  26        -0.00000000
  27        -0.99148580
  28        -0.00000000
  29         0.00000000
  30         0.59665165
  31        -0.00000000
  32        -0.00000000
  33        -0.32928619
  34        -0.00000000
  35         0.00000000
  36         0.14465487
  37        -0.00000000
  38        -0.00000000
  39        -0.03819989
  40        -0.00000000
  41         0.00000000
  42         0.00000000
  43        -0.00000000
  44        -0.00000000
  45        -0.00000000
  46         0.00000000
  47         0.00000000
  48         0.00000000
  49         0.00000000
  50         0.00000000
  51        -0.00000000
  52         0.00000000
  53        -0.00000000
  54        -0.00000000
  55        -0.00000000
  56        -0.00000000
  57         0.00000000
  58         0.00000000
  59        -0.00000000
  60         0.00000000
  61         0.00000000
